Al8 
1.0
4.0980839946407022e+00 -2.3660298974675049e+00 2.8975509406205212e-16 
0.0000000000000000e+00 4.7320597949350116e+00 2.8975509406205212e-16 
0.0000000000000000e+00 0.0000000000000000e+00 9.0007372705460380e+00 
Al 
8 
Cartesian
   1.1895266785   -0.6867735480    2.5477681448
   0.0000000000    1.3735470961    2.5477681448
   2.9085573161    1.6792563494    2.5477681448
   0.0000000000    0.0000000000    7.4535610495
   1.2167461910   -0.7024887409    7.1914284420
   0.0000000000    1.4049774819    7.1914284420
   2.8813378036    1.6635411565    7.1914284420
   0.0000000000    0.0000000000    5.6436949771
