Al
 1.0000000000000000
     2.4261481955577779   -1.4007373137995613    0.0000000000022918
    -0.0000000000009886    2.8014746275974005   -0.0000000000021038
     0.0000000000078813   -0.0000000000115857   19.6025558670295581
 Al 
   8
Cartesian
  0.8087160651813731  1.4007373138172319  1.2827473425741833
  1.6174321303671195 -0.0000000000071748 11.0840252760908946
 -0.0000000000012016  0.0000000000061741 -0.9766678885416480
  0.0000000000012434 -0.0000000000062312  8.8246100449753300
  0.0000000000048792 -0.0000000000054044 13.3488073198048625
  0.0000000000003347 -0.0000000000022562  3.5475293862894701
  0.0000000000043295 -0.0000000000096521  6.1927437434230379
  0.0000000000093879 -0.0000000000105116 15.9940216769532082
