Al
 1.0000000000000000
     5.0834189338812594    0.0000000000000004    0.0000000000000002
     0.0000000000000000    5.0834189338812656    0.0000000000000002
    -0.0000000000000001   -0.0000000000000001    5.0834189338812656
 Al 
   8
Cartesian
  0.0000000000424758  0.0000000000424722  0.0000000000424770
  2.5417094669226259  2.5417094669226303  2.5417094669226286
  1.2675816584487694  2.5417094669229074  0.0000000000292201
  3.8158372754721830  2.5417094669229061  0.0000000000292217
  0.0000000000292211  1.2675816584487716  2.5417094669229150
  0.0000000000292237  3.8158372754721928  2.5417094669229150
  2.5417094669229132  0.0000000000292225  1.2675816584487725
  2.5417094669229119  0.0000000000292223  3.8158372754721945
