Al
 1.0000000000000000
     4.9455981903557396   -0.0000000000000018   -0.0000000000000401
    -0.0000000000000021    4.9457678967674887   -0.0000000000000170
    -0.0000000000000404   -0.0000000000000173    4.9455987708441809
 Al 
   8
Cartesian
 -0.0003590726877930 -0.0082996046108821  0.0004616246750013
  2.4731581644754281 -0.0082996008065368  2.4723377655826515
 -0.0003590669842642  2.4811835509349671  2.4723377614756394
  2.4731581655465225  2.4811835512440883  0.0004616191050433
  2.4724400281936063  2.4645843475772020  2.4732610045271426
  0.0003590703686541  2.4645843437728581 -0.0004616239464406
  2.4724400224900793  0.0082996028603417 -0.0004616198394297
  0.0003590692975604  0.0082996025512196  2.4732610100971009
