Al8 
1.0
4.8051270759270412e+00 2.9422917465151660e-16 2.9422917465151660e-16 
0.0000000000000000e+00 4.8051270759270412e+00 2.9422917465151660e-16 
0.0000000000000000e+00 0.0000000000000000e+00 4.8051270759270412e+00 
Al 
8 
Cartesian
   0.0000000000    0.0000000000    0.0000000000
   2.4025635380    2.4025635380    2.4025635380
   1.4898241389    2.4025635380    0.0000000000
   3.3153029370    2.4025635380    0.0000000000
   0.0000000000    1.4898241389    2.4025635380
   0.0000000000    3.3153029370    2.4025635380
   2.4025635380    0.0000000000    1.4898241389
   2.4025635380    0.0000000000    3.3153029370
