Al8 
1.0
8.4593362675262735e+00 5.1798495414685845e-16 5.1798495414685845e-16 
0.0000000000000000e+00 8.4593362675262735e+00 5.1798495414685845e-16 
0.0000000000000000e+00 0.0000000000000000e+00 2.5645248341001166e+00 
Al 
8 
Cartesian
   5.6146427534    2.8446935141    0.2102480574
   7.0743616479    1.3849746196    0.2102480574
   1.3849746196    5.6146427534    1.4925104744
   2.8446935141    7.0743616479    1.4925104744
   7.0743616479    2.8446935141    1.0720143597
   5.6146427534    1.3849746196    1.0720143597
   2.8446935141    5.6146427534    2.3542767767
   1.3849746196    7.0743616479    2.3542767767
