Al8 
1.0
5.8721436357091008e+00 -3.3902837087967956e+00 4.1519000921794149e-16 
0.0000000000000000e+00 6.7805674175935939e+00 4.1519000921794149e-16 
0.0000000000000000e+00 0.0000000000000000e+00 4.0800419914496002e+00 
Al 
8 
Cartesian
   2.9493459670    1.6721503536    0.0000000000
   2.9493459670   -1.6721503536    0.0000000000
   5.8455953374    0.0000000000    0.0000000000
   2.9493459670    1.6721503536    2.0400209957
   2.9493459670   -1.6721503536    2.0400209957
   5.8455953374    0.0000000000    2.0400209957
   3.9147624238    0.0000000000    1.0200104979
   3.9147624238    0.0000000000    3.0600314936
