Al8 
1.0
3.4449285592936514e+00 1.2820826023353247e-16 1.7870704002173299e+00 
0.0000000000000000e+00 5.9944311783628619e+00 3.6705304776455877e-16 
0.0000000000000000e+00 0.0000000000000000e+00 4.3180248226095426e+00 
Al 
8 
Cartesian
   1.7224642796    5.3733784304    1.9730414058
   1.7224642796    0.6210527480    4.1320538171
   1.7224642796    4.0978275491    1.9730414058
   1.7224642796    1.8966036292    4.1320538171
   0.0000000000    1.3809428423    1.0795062057
   0.0000000000    4.6134883360    3.2385186170
   1.7224642796    2.4873332082    1.9730414058
   1.7224642796    3.5070979701    4.1320538171
