Al8 
1.0
4.9841325959892862e+00 3.0519010151021338e-16 3.0519010151021338e-16 
0.0000000000000000e+00 4.9841325959892862e+00 3.0519010151021338e-16 
0.0000000000000000e+00 0.0000000000000000e+00 3.4803869320874248e+00 
Al 
8 
Cartesian
   0.0000000000    0.0000000000    0.0000000000
   2.4920662980    2.4920662980    1.7401934660
   0.0000000000    2.4920662980    0.8700967330
   0.0000000000    2.4920662980    2.6102901991
   2.4920662980    0.0000000000    0.8700967330
   2.4920662980    0.0000000000    2.6102901991
   0.0000000000    0.0000000000    1.7401934660
   2.4920662980    2.4920662980    0.0000000000
