Al
 1.0000000000000000
     5.3186839318275734    0.0000000000000003    0.0000000000000004
    -0.0000000000000000    5.3186839318275760    0.0000000000000004
     0.0000000000000001    0.0000000000000000    5.3186839318275760
 Al 
   8
Cartesian
  5.3188484535961038  5.3188484535961047  5.3188484535961047
  2.6591774441697815 -0.0001645218168314  2.6595064876854231
 -0.0001645218168313  2.6595064876854226  2.6591774441697806
  2.6595064876854266  2.6591774441697855 -0.0001645218168344
  2.6595064876754568  2.6595064876754591  2.6595064876754577
 -0.0001645218267972  2.6591774441598162  5.3188484535861331
  2.6591774441598131  5.3188484535861438 -0.0001645218267987
  5.3188484535861349 -0.0001645218267994  2.6591774441598179
