Al
 1.0000000000000000
     4.1940612612513481   -2.4214423982027329    0.0000000000098349
    -0.0000000000052053    4.8428847963963610   -0.0000000000274817
    -0.0000000000564164   -0.0000000003195510   13.1253329709277402
 Al 
   8
Cartesian
  0.0064543447281180  3.2323162794124922  9.0120375275787463
  1.3915660774806795  0.8108738845438204  9.0120375274372311
  2.7960408388279907  3.2211370296742134  9.0120375270419917
  1.3915660775884178  4.0320109115770109  4.1132954435943798
  2.7960408388575679  1.6217477662972399  4.1132954439196761
  0.0064543446343588  1.6105685167316799  4.1132954437328646
  0.0000000000847357 -0.0000000000934079 -0.0000000002104997
  1.3980204203072437  2.4214423981781912 -0.0000000002541464
