Al
 1.0000000000000000
     4.4607736107476468   -0.0000000000000001    0.0000000000047147
    -0.0000000000000004    4.4607736107476450   -0.0000000000047143
     0.0000000000065395   -0.0000000000065397    6.2031669555070064
 Al 
   8
Cartesian
 -0.0000000000040747 -0.0000000000040781  0.0000000000214015
  2.2303868054122615  2.2303868054057157  3.1015834777998199
 -0.0000000000052093  2.2303868054101228  4.6567578474439539
 -0.0000000000084794  2.2303868054133940  1.5551743697277176
  2.2303868054199429 -0.0000000000150229  4.6479925857482174
  2.2303868054166669 -0.0000000000117499  1.5464091080275137
 -0.0000000000008010 -0.0000000000073485  3.1015834777998292
  2.2303868054089957  2.2303868054089877  0.0000000000213986
