Al8 
1.0
4.2781059216958397e+00 2.6195843617090738e-16 2.6195843617090738e-16 
0.0000000000000000e+00 4.0664791344441564e+00 2.4900003278982675e-16 
0.0000000000000000e+00 0.0000000000000000e+00 9.7383812947791917e+00 
Al 
8 
Cartesian
   0.0000000000    2.0332395672    0.0000000000
   2.1390529608    0.0000000000    4.8691906474
   0.0000000000    2.0332395672    4.8691906474
   2.1390529608    0.0000000000    0.0000000000
   0.0000000000    0.0000000000    0.0000000000
   2.1390529608    2.0332395672    4.8691906474
   0.0000000000    0.0000000000    4.8691906474
   2.1390529608    2.0332395672    0.0000000000
