Al
 1.0000000000000000
     4.5724225531162102   -2.6398893918903337   -0.0000000000000012
     0.0000000000000003    5.2797787837806816    0.0000000000000037
     0.0000000000000000    0.0000000000000030    5.3242123075231493
 Al 
   8
Cartesian
  2.2862112766585092 -1.3199446960348777 -0.0000000000038506
 -0.0000000000419477  2.6398893919916189 -0.0000000000035541
  2.2862112764279470  1.3199446958622030 -0.0000000000042923
 -0.0000000000419710  2.6398893919916362  2.6621061537390798
  2.2862112766584710 -1.3199446960348795  2.6621061537387818
  2.2862112764278915  1.3199446958621746  2.6621061537383421
  0.0000000000786616  0.0000000000183210  1.3310530768423987
  0.0000000000786242  0.0000000000183322  3.9931592305790971
