Al8 
1.0
4.6369736534977530e+00 2.5417214729997584e-16 5.1448155918526151e-01 
0.0000000000000000e+00 3.9124007521498925e+00 2.3956545290510315e-16 
0.0000000000000000e+00 0.0000000000000000e+00 4.8850111688490934e+00 
Al 
8 
Cartesian
   1.6793805771    3.2374688568    1.8812754141
   1.6793805771    0.6749318954    1.8812754141
   3.9978674038    1.2812684807    2.1385161936
   3.9978674038    2.6311322714    2.1385161936
   2.4242276606    0.0000000000    2.6015532514
   0.1057408338    1.9562003761    2.3443124718
   0.9392888515    0.0000000000    1.0737565001
   3.2577756782    1.9562003761    1.3309972797
