Al
 1.0000000000000000
     5.3175338562503320    0.0000000000000002    0.0000000000000002
    -0.0000000000000002    5.3175338562503320    0.0000000000000005
    -0.0000000000000001    0.0000000000000002    5.3175338562503658
 Al 
   8
Cartesian
  1.3290244028863698  1.3290244028863671  1.3290244028863694
  3.9885094533860772  3.9885094533860883  1.3290244028863716
  3.9885094533860834  1.3290244028863663  3.9885094533860950
  1.3290244028863660  3.9885094533860843  3.9885094533860790
  3.9877913310098294  3.9877913310098347  3.9877913310098489
  1.3297425252626012  1.3297425252626001  3.9877913310098432
  1.3297425252626014  3.9877913310098387  1.3297425252626003
  3.9877913310098356  1.3297425252626001  1.3297425252626096
