Al8 
1.0
5.0196950288691733e+00 3.0736767249002567e-16 3.0736767249002567e-16 
0.0000000000000000e+00 5.0196950288691733e+00 3.0736767249002567e-16 
0.0000000000000000e+00 0.0000000000000000e+00 5.0196950288691733e+00 
Al 
8 
Cartesian
   4.7882928423    4.7882928423    4.7882928423
   2.7412497010    0.2314021865    2.2784453279
   0.2314021865    2.2784453279    2.7412497010
   2.2784453279    2.7412497010    0.2314021865
   2.2784453279    2.2784453279    2.2784453279
   0.2314021865    2.7412497010    4.7882928423
   2.7412497010    4.7882928423    0.2314021865
   4.7882928423    0.2314021865    2.7412497010
