Al8 
1.0
3.8314856085788080e+00 -4.7577300714851070e-02 4.7178051687874312e-02 
-4.7577300714852576e-02 3.9642149898765551e+00 4.3729486507874782e-01 
1.8653643959929290e-02 1.7290122052222068e-01 9.1930280436943548e+00 
Al 
8 
Cartesian
   0.9245830779    2.9825450630    1.3721664612
   2.8635140820    0.9729192296    1.1766878006
   2.8563007333    3.0906099243    8.5241774747
   0.9607260104    1.1330036025    8.2819701844
   0.9577434090    1.0831504771    5.7496207425
   2.8490073949    3.0452150360    5.9922615630
   2.8707545486    1.0227194831    3.7090896707
   0.9276185511    3.0279928232    3.9040299447
