Al8 
1.0
7.1431480204337259e+00 4.3739166795299572e-16 4.3739166795299572e-16 
0.0000000000000000e+00 7.1431480204337259e+00 4.3739166795299572e-16 
0.0000000000000000e+00 0.0000000000000000e+00 3.5986459303841039e+00 
Al 
8 
Cartesian
   0.0000000000    3.5715740102    0.0000000000
   3.5715740102    0.0000000000    0.0000000000
   3.5715740102    0.0000000000    1.7993229652
   0.0000000000    3.5715740102    1.7993229652
   0.0000000000    0.0000000000    2.9758789568
   0.0000000000    0.0000000000    0.6227669735
   3.5715740102    3.5715740102    1.1765559916
   3.5715740102    3.5715740102    2.4220899387
