Al8 
1.0
5.8069760621342352e+00 3.5557473236089963e-16 3.5557473236089963e-16 
0.0000000000000000e+00 5.8069760621342352e+00 3.5557473236089963e-16 
0.0000000000000000e+00 0.0000000000000000e+00 2.7646381765388361e+00 
Al 
8 
Cartesian
   0.0000000000    0.0000000000    1.7893363082
   2.9034880311    2.9034880311    0.4070172199
   3.9273535569    3.9273535569    2.1937600604
   1.8796225053    1.8796225053    2.1937600604
   4.7831105363    1.0238655258    0.8114409722
   1.0238655258    4.7831105363    0.8114409722
   0.0000000000    0.0000000000    0.4384901992
   2.9034880311    2.9034880311    1.8208092875
