Al8 
1.0
4.8184828874056667e+00 2.9504698224038231e-16 2.9504698224038231e-16 
0.0000000000000000e+00 4.8184828874056667e+00 2.9504698224038231e-16 
0.0000000000000000e+00 0.0000000000000000e+00 4.8184828874056667e+00 
Al 
8 
Cartesian
   0.0000000000    0.0000000000    0.0000000000
   2.4092414437    0.0000000000    2.4092414437
   0.0000000000    2.4092414437    2.4092414437
   2.4092414437    2.4092414437    0.0000000000
   2.4092414437    2.4092414437    2.4092414437
   0.0000000000    2.4092414437    0.0000000000
   2.4092414437    0.0000000000    0.0000000000
   0.0000000000    0.0000000000    2.4092414437
