Al8 
1.0
3.7752530095707573e+00 2.3116757570711200e-16 2.3116757570711200e-16 
0.0000000000000000e+00 3.7752530095707573e+00 2.3116757570711200e-16 
0.0000000000000000e+00 0.0000000000000000e+00 9.8177417596943037e+00 
Al 
8 
Cartesian
   0.0000000000    0.0000000000    4.9088708798
   1.8876265048    1.8876265048    4.9088708798
   1.8876265048    0.0000000000    4.9088708798
   0.0000000000    1.8876265048    4.9088708798
   2.8314397572    0.9438132524    6.5153117265
   0.9438132524    2.8314397572    6.5153117265
   0.9438132524    2.8314397572    3.3024300332
   2.8314397572    0.9438132524    3.3024300332
