Al8 
1.0
3.0785485966755668e+00 7.7815620680818810e-13 -5.6482602365239207e-17 
7.7796770007475610e-13 3.0785485966727326e+00 9.5541823876105823e-16 
-7.4324523375350793e-16 2.4533703307240353e-15 1.4524826323712272e+01 
Al 
8 
Cartesian
   1.3161876662    0.9515431805   13.1335469568
   1.3161876662    0.9515431805    8.8534814193
   1.3161874621    2.4908173363   10.9935141881
   2.8533475672    0.9494289205    1.0804877392
   0.9515430758    0.9494289205    5.8920765046
   2.8533475672    2.8554617226    5.8920765046
   2.8554617226    0.9515430758    3.7311010262
   0.9494289205    2.8533475672    3.7311010262
