Al8 
1.0
3.8048906430267113e+00 1.4301574983046209e-16 -9.3543820050795661e-15 
-8.9966607523964502e-17 3.8048906430267095e+00 7.6104168011010267e-15 
-2.5183141080516558e-14 1.9518853514399466e-14 9.6231775308264549e+00 
Al 
8 
Cartesian
   0.9515430758    2.8554617226    3.5723709793
   2.8533475672    0.9494289205   -1.4115986536
   2.8554617226    2.8533475672   11.0428347858
   0.9494289205    0.9515430758    6.0589252107
   0.9515430758    0.9494289205    3.3971591189
   2.8533475672    2.8554617226    8.3811321946
   2.8554617226    0.9515430758    1.2314994257
   0.9494289205    2.8533475672    6.2154055579
