Al
 1.0000000000000000
     5.4995386828824868    0.0000000000000003    0.0000000000007183
     0.0000000000000001    4.4519929876306179   -0.0000000000000074
     0.0000000000003797   -0.0000000000000042   10.2911734799604559
 Al 
   8
Cartesian
  1.4342751824392612 -0.0000000006188838  2.5728032549995401
  4.0652635007381788 -0.0000000006188839  2.5728032549972171
  4.0652635007404818 -0.0000000006189008  7.7183899946290033
  1.4342751824373410 -0.0000000006189010  7.7183899946660759
  0.0000000003987911  2.2259964916455379  2.5727861503872376
  0.0000000003989708  2.2259964916452608  7.7183728904194489
 -0.0000000007429908  2.2259964972639641 -0.0000125500302791
 -0.0000000007457194  2.2259964972638664  5.1455741898808762
