Al8 
1.0
4.3101203732207436e+00 -2.4884491577186854e+00 3.0474712958411164e-16 
0.0000000000000000e+00 4.9768983154373725e+00 3.0474712958411164e-16 
0.0000000000000000e+00 0.0000000000000000e+00 8.4368555509593435e+00 
Al 
8 
Cartesian
   2.1550601866   -1.2442245789    7.1572161854
   0.0000000000    2.4884491577    7.1572161854
   2.1550601866    1.2442245789    7.1572161854
   0.0000000000    2.4884491577    2.9387884099
   2.1550601866   -1.2442245789    2.9387884099
   2.1550601866    1.2442245789    2.9387884099
   0.0000000000    0.0000000000    1.6369397049
   0.0000000000    0.0000000000    5.8553674803
