Al
 1.0000000000000000
     7.3030683986355838    0.0000000000000007    0.0000000000000007
     0.0000000000000002    7.3030683986355838    0.0000000000000007
     0.0000000000000002    0.0000000000000002    7.3030683986355811
 Al 
   8
Cartesian
  0.0000000000180272  0.0000000000180279  0.0000000000180291
  6.0746798782546572  3.6515341992674846  3.6515341992674801
  1.2283885203015263  3.6515341992674744  3.6515341992674828
  3.6515341992674744  6.0746798782546572  3.6515341992674801
  3.6515341992674744  1.2283885203015257  3.6515341992674828
  3.6515341992674744  3.6515341992674752  6.0746798782546678
  3.6515341992674744  3.6515341992674752  1.2283885203015357
  3.6515341992790340  3.6515341992790331  3.6515341992790433
