Al8 
1.0
3.4424375211375451e+00 1.4671673918334283e-01 -4.2004835464965251e-01 
1.4671673918334230e-01 4.3915159735235427e+00 4.7141770349943274e-01 
-1.6608215416432948e-01 1.8639298747803881e-01 9.2705668380928881e+00 
Al 
8 
Cartesian
   0.9477969945    3.2167972194    1.2749786540
   2.5949419564    1.0903127940    0.8288805298
   2.5869993224    4.7947792237    8.3995609130
   0.7890661738    2.5222236224    8.3739179414
   0.8003818953    1.3831546352    5.7034209598
   2.5945148851    3.6563063789    5.7296122207
   2.5147915228    0.0546833660    3.2654450544
   0.8637956745    2.1802455613    3.7119284746
