Al
 1.0000000000000000
     3.9950378683192960   -0.0000000000000022   -0.0000000000000013
    -0.0000000000000024    3.9950378683192764   -0.0000000000000013
    -0.0000000000000028   -0.0000000000000028    8.0341743263613079
 Al 
   8
Cartesian
 -0.0000000000791086  0.9987594669969106  1.0042717912462833
 -0.0000000000791363  2.9962784013075514  3.0128153729804725
 -0.0000000000791436  2.9962784013075501  7.0299025351187767
 -0.0000000000791351  0.9987594669969079  5.0213589533845049
  1.9975189342313846  2.9962784013075643  5.0213589533845076
  1.9975189342315742  0.9987594669968989  7.0299025351187900
  1.9975189342313895  0.9987594669969049  3.0128153729804543
  1.9975189342313890  2.9962784013075656  1.0042717912462800
