Al8 
1.0
4.5422136768886778e+00 2.7813037202225245e-16 2.7813037202225245e-16 
0.0000000000000000e+00 4.5422136768886778e+00 2.7813037202225245e-16 
0.0000000000000000e+00 0.0000000000000000e+00 4.5422136768886778e+00 
Al 
8 
Cartesian
   2.8388835481    2.8388835481    2.8388835481
   3.9744369673    1.7033301288    0.5677767096
   1.7033301288    0.5677767096    3.9744369673
   0.5677767096    3.9744369673    1.7033301288
   0.5677767096    0.5677767096    0.5677767096
   1.7033301288    3.9744369673    2.8388835481
   3.9744369673    2.8388835481    1.7033301288
   2.8388835481    1.7033301288    3.9744369673
