Al
 1.0000000000000000
     5.6121572107609099   -0.0000000000051662    0.2385920849682944
    -0.0000000000034662    5.6385182101552855   -0.0000000000002279
    -0.2099024083860491   -0.0000000000012334    4.0134882145493442
 Al 
   8
Cartesian
  1.9642256555025237  4.2288635197444142  1.4606891497244923
  1.9642256555188289  1.4096546904224534  1.4606891497288825
  4.7703042609774693  1.4096044146229416  1.5799851924633792
  4.7703042609624644  4.2289137955430514  1.5799851924587671
  3.2584161656756909  0.0000000000048457  3.5259683396297850
  0.4523375608464458  2.8192591050843077  3.4066722972693619
  0.6615990205078439  0.0000000000128864 -0.6033516991488335
  3.4676776263554836  2.8192591050808695 -0.4840556564488730
