Al8 
1.0
3.5349606485948839e+00 -2.0409104820409891e+00 2.4993944891777802e-16 
0.0000000000000000e+00 4.0818209640819800e+00 2.4993944891777802e-16 
0.0000000000000000e+00 0.0000000000000000e+00 4.2363152768578853e+00 
Al 
8 
Cartesian
   1.7674803243   -1.0204552410    0.0000000000
   0.0000000000    2.0409104820    0.0000000000
   1.7674803243    1.0204552410    0.0000000000
   0.0000000000    2.0409104820    2.1181576384
   1.7674803243   -1.0204552410    2.1181576384
   1.7674803243    1.0204552410    2.1181576384
   0.0000000000    0.0000000000    1.0590788192
   0.0000000000    0.0000000000    3.1772364576
