Al8 
1.0
3.8048906430267113e+00 1.4301574983046209e-16 -9.3543820050795661e-15 
-8.9966607523964502e-17 3.8048906430267095e+00 7.6104168011010267e-15 
-2.5183141080516558e-14 1.9518853514399466e-14 9.6231775308264549e+00 
Al 
8 
Cartesian
   0.9515430758    2.8554617226   -1.4380772183
   2.8533475672    0.9494289205    3.6154218759
   2.8554617226    2.8533475672   11.0712590077
   0.9494289205    0.9515430758    6.0176947920
   0.9515430758    0.9494289205    3.3570294502
   2.8533475672    2.8554617226    8.4105292786
   2.8554617226    0.9515430758    6.2567257468
   0.9494289205    2.8533475672    1.2031622652
