Al
 1.0000000000000000
     5.3184567691800755    0.0000000000000007    0.0000000000000010
     0.0000000000000004    5.3294959923201368    0.0000000000000006
     0.0000000000000003    0.0000000000000000    5.3174278604951999
 Al 
   8
Cartesian
 -0.0000000000128313  3.9966095274956031  3.9863575298432901
 -0.0000000000124078  1.3328864648415344  3.9863575298442289
 -0.0000000000123305  3.9966095274950493  1.3310703306857792
 -0.0000000000129202  1.3328864648409906  1.3310703306867084
  2.6592283845771489  1.3318615313354012  1.3276435995921279
  2.6592283845777462  3.9976344610014141  1.3276435995950944
  2.6592283845776632  1.3318615313347650  3.9897842609301586
  2.6592283845772400  3.9976344610007781  3.9897842609331251
