Al8 
1.0
5.5895248955865000e+00 3.4225968860672257e-16 3.4225968860672257e-16 
0.0000000000000000e+00 4.1544792404958573e+00 2.5438848519986891e-16 
0.0000000000000000e+00 0.0000000000000000e+00 6.0171511474395807e+00 
Al 
8 
Cartesian
   0.0000000000    2.0772396202    2.2415315518
   0.0000000000    2.0772396202    3.7756195957
   2.7947624478    0.0000000000    5.2501071255
   2.7947624478    0.0000000000    0.7670440220
   0.0000000000    1.4142665578    0.0000000000
   0.0000000000    2.7402126827    0.0000000000
   2.7947624478    3.4915061780    3.0085755737
   2.7947624478    0.6629730625    3.0085755737
