Al8 
1.0
3.4049571296218204e+00 0.0000000000000000e+00 0.0000000000000000e+00 
7.6986979661713353e-13 3.4049571296204171e+00 0.0000000000000000e+00 
-3.1096542689092568e-14 2.1950065795546405e-14 1.1945034310232851e+01 
Al 
8 
Cartesian
   1.1794088403    3.3628228828    2.6830596424
   1.1775169046    1.6590258545    0.0006892766
   1.1794088403    1.6571339189    8.6555767975
   1.1775169047    3.3609309471    5.9732064317
   2.7176083010    0.0111751330    3.6156735253
   2.7176081912    0.0111752428    9.5881906804
   2.7176081912    0.0111752428    6.0683186657
   2.7176080753    1.7136535401    1.8557375179
