Al8 
1.0
3.0068511354320053e+00 1.8411653092596950e-16 1.8411653092596950e-16 
0.0000000000000000e+00 3.0068511354320053e+00 1.8411653092596950e-16 
0.0000000000000000e+00 0.0000000000000000e+00 1.1643112227880636e+01 
Al 
8 
Cartesian
   0.0000000000    0.0000000000    6.7362903469
   0.0000000000    0.0000000000    0.9147342329
   0.0000000000    0.0000000000    4.9068218810
   0.0000000000    0.0000000000   10.7283779950
   0.0000000000    1.5034255677    5.8215561139
   1.5034255677    0.0000000000    0.0000000000
   1.5034255677    1.5034255677    2.9107780570
   1.5034255677    1.5034255677    8.7323341709
