Al8 
1.0
3.8742188678231364e+00 2.3722748678379434e-16 2.3722748678379434e-16 
0.0000000000000000e+00 3.8742188678231364e+00 2.3722748678379434e-16 
0.0000000000000000e+00 0.0000000000000000e+00 1.0106099018620187e+01 
Al 
8 
Cartesian
   3.6826687099    1.2004474328    7.6115155290
   0.1915501579    2.6737714350    7.6115155290
   2.6737714350    3.6826687099    7.6115155290
   1.2004474328    0.1915501579    7.6115155290
   1.7455592760    3.1375568667    2.5584660197
   2.1286595918    0.7366620011    2.5584660197
   0.7366620011    1.7455592760    2.5584660197
   3.1375568667    2.1286595918    2.5584660197
