Al8 
1.0
3.8048906430267113e+00 1.4301574983046209e-16 -9.3543820050795661e-15 
-8.9966607523964502e-17 3.8048906430267095e+00 7.6104168011010267e-15 
-2.5183141080516558e-14 1.9518853514399466e-14 9.6231775308264549e+00 
Al 
8 
Cartesian
   1.7382326568    1.7938194468    2.0667464940
   1.7403468122    3.6977380936    9.5289485464
   3.6392046531    1.7959336022    9.5289485464
   1.7403468121    1.7959336022    4.7173597810
   0.5627702117    0.6213036523    7.5403293548
   0.5627701124    0.6213037515    0.2779161929
   0.5627702117    0.6213036523    0.0000000000
   0.5627701124    0.6213037515    0.8994994483
