Al
 1.0000000000000000
     3.9918089779846975   -0.0000000000000001   -0.0000000000000005
    -0.0000000000000004    3.9918089779791601   -0.0000000000000006
    -0.0000000000000014   -0.0000000000000015    7.9918163060561129
 Al 
   8
Cartesian
 -0.0000000000742401  1.9959044890934932  7.9924445315671457
  1.9959044890961719 -0.0000000000743800 -0.0006282251797324
  1.9959044890401219 -0.0000000001304539  3.9965363783114212
 -0.0000000001302643  1.9959044890373616  3.9952799277760027
 -0.0000000001292959 -0.0000000000840260  1.9992187964346375
 -0.0000000000839197 -0.0000000001295161  5.9925975095074495
  1.9959044890953870  1.9959044890471060  5.9951269494609081
  1.9959044890497439  1.9959044890926396  1.9966893563969343
