Al
 1.0000000000000000
     5.6414713340022260    0.0000000000000138   -0.0000000000016971
     0.0000000000000135    5.6414713340022349    0.0000000000031240
     0.0000000000030605   -0.0000000000011722    3.9788346582597360
 Al 
   8
Cartesian
  4.2345006145973283  1.4137649473191158  0.1773624521115039
  1.4069707196250367  4.2277063863832778  0.1773624521120175
  4.2277063863096735  4.2345006146663247  0.1773624520951902
  1.4137649472455609  1.4069707196939403  0.1773624521282797
  2.8207356668551138  0.0000000001112206  2.1501127171791441
 -0.0000000000952536  2.8207356670550872  2.1501127171815417
  0.0000000001825059 -0.0000000001655262  2.1690868230323410
  2.8207356671299668  2.8207356667768440  2.1690868230244034
