Al8 
1.0
6.4463687719791309e+00 3.9472624413638485e-16 3.9472624413638485e-16 
0.0000000000000000e+00 6.4463687719791309e+00 3.9472624413638485e-16 
0.0000000000000000e+00 0.0000000000000000e+00 4.9980716437462664e+00 
Al 
8 
Cartesian
   3.7643511220    3.7643511220    1.2495179109
   2.6820176500    2.6820176500    1.2495179109
   3.7643511220    2.6820176500    3.7485537328
   2.6820176500    3.7643511220    3.7485537328
   0.5411667360    0.5411667360    3.7485537328
   5.9052020360    5.9052020360    3.7485537328
   0.5411667360    5.9052020360    1.2495179109
   5.9052020360    0.5411667360    1.2495179109
