Al8 
1.0
4.0161600429311974e+00 2.4591887707195935e-16 2.4591887707195935e-16 
0.0000000000000000e+00 4.0161600429311974e+00 2.4591887707195935e-16 
0.0000000000000000e+00 0.0000000000000000e+00 4.0161600429311974e+00 
Al 
8 
Cartesian
   0.9325944384    0.9325944384    0.9325944384
   3.0835656045    3.0835656045    0.9325944384
   3.0835656045    0.9325944384    3.0835656045
   0.9325944384    3.0835656045    3.0835656045
   0.9325944384    0.9325944384    3.0835656045
   3.0835656045    3.0835656045    3.0835656045
   0.9325944384    3.0835656045    0.9325944384
   3.0835656045    0.9325944384    0.9325944384
