Al8 
1.0
4.3809327255430013e+00 -2.5293326883938909e+00 3.0975391808203498e-16 
0.0000000000000000e+00 5.0586653767877845e+00 3.0975391808203498e-16 
0.0000000000000000e+00 0.0000000000000000e+00 8.9207571769519642e+00 
Al 
8 
Cartesian
   1.2070525562   -0.6968921183    0.0000000000
   0.0000000000    1.3937842365    0.0000000000
   3.1738801693    1.8324405701    0.0000000000
   1.2070525562   -0.6968921183    4.4603785885
   0.0000000000    1.3937842365    4.4603785885
   3.1738801693    1.8324405701    4.4603785885
   1.4603109085    2.5293326884    2.2301892942
   2.9206218170    0.0000000000    6.6905678827
