Al8 
1.0
9.4047359596330509e+00 5.7587398948953136e-16 5.7587398948953136e-16 
0.0000000000000000e+00 9.4047359596330509e+00 5.7587398948953136e-16 
0.0000000000000000e+00 0.0000000000000000e+00 1.6200579968482482e+00 
Al 
8 
Cartesian
   9.1740219375    8.7148079326    0.0000000000
   0.2307140222    0.6899280271    0.0000000000
   0.6899280271    9.1740219375    0.8100289984
   8.7148079326    0.2307140222    0.8100289984
   4.9330820020    4.0124399528    0.0000000000
   4.4716539577    5.3922960069    0.0000000000
   4.0124399528    4.4716539577    0.8100289984
   5.3922960069    4.9330820020    0.8100289984
