Al8 
1.0
2.8034456170780100e+00 1.7166153507691306e-16 1.7166153507691306e-16 
0.0000000000000000e+00 2.8034456170780100e+00 1.7166153507691306e-16 
0.0000000000000000e+00 0.0000000000000000e+00 1.2357274028672206e+01 
Al 
8 
Cartesian
   0.7569524983    0.1064326210    0.2148256231
   2.0464931188    2.6970129960    0.2148256231
   2.6970129960    0.7569524983    6.3934626374
   0.1064326210    2.0464931188    6.3934626374
   1.4461125165    0.7444008359    2.4363487859
   1.3573331006    2.0590447812    2.4363487859
   2.0590447812    1.4461125165    8.6149858002
   0.7444008359    1.3573331006    8.6149858002
