Al
 1.0000000000000000
     4.5646209678474214   -2.6353851445353795   -0.0000000000000558
     0.0000000000000235    5.2707702890706498    0.0000000000000204
    -0.0000000000000524    0.0000000000000197    8.7911108072527604
 Al 
   8
Cartesian
  0.0000000030602870 -0.0000000004625699  2.1977782822019987
  0.0000000030606002 -0.0000000004635304  6.5933295435785375
  2.2821897069260300 -1.3176228416357454  0.0000005286137234
 -0.0000000005404181  2.6352456849847465  0.0000004529947306
  2.2824312584904463  1.3177623016346538  0.0000005091459448
 -0.0000000005407325  2.6352456796625692  4.3955559445000727
  2.2821897023166167 -1.3176228389748410  4.3955558688285761
  2.2824312630994017  1.3177623042956261  4.3955558883047541
