Al
 1.0000000000000000
     3.6555845711443893   -0.0000018787112269    2.5124545750022613
     0.0000004404475175    8.5570818642466282   -0.0000038509494233
     0.2767432890870362   -0.0000037681287152    5.5525433206167882
 Al 
   8
Cartesian
  1.8969320275796544  8.5445846570111588  2.6443473739870780
  2.0354197058926928  0.0124913658606532  5.4206524551854702
  1.8969342789514054  5.6344948609399008  2.6443355895528775
  2.0354048616916161  2.9225816936781626  5.4206659652632299
  0.0691257406056713  1.4476831402046955  1.3881816524221338
  0.2076106046853927  7.1093945052289742  4.1643606113191884
  1.8969656929570795  2.9466370196055545  2.6443076681570608
  2.0353357189388213  5.6104395055890972  5.4206702881716744
