Al8 
1.0
4.8181689116992672e+00 2.9502775677318970e-16 2.9502775677318970e-16 
0.0000000000000000e+00 4.8181689116992672e+00 2.9502775677318970e-16 
0.0000000000000000e+00 0.0000000000000000e+00 3.4603706598528841e+00 
Al 
8 
Cartesian
   0.0000000000    0.0000000000    1.7301853299
   2.4090844558    2.4090844558    0.0000000000
   0.0000000000    2.4090844558    0.8650926650
   0.0000000000    2.4090844558    2.5952779949
   2.4090844558    0.0000000000    2.5952779949
   2.4090844558    0.0000000000    0.8650926650
   0.0000000000    0.0000000000    0.0000000000
   2.4090844558    2.4090844558    1.7301853299
