Al8 
1.0
5.7443218467284893e+00 3.5173826814341289e-16 3.5173826814341289e-16 
0.0000000000000000e+00 5.3768987685819312e+00 3.2924009331416035e-16 
0.0000000000000000e+00 0.0000000000000000e+00 3.8792578661577921e+00 
Al 
8 
Cartesian
   1.4360804617    2.6884493843    2.9073431822
   4.3082413850    2.6884493843    2.9115436171
   4.3082413850    2.6884493843    0.9719146840
   1.4360804617    2.6884493843    0.9677142491
   0.0000000000    4.7535751070    0.9698144665
   2.8721609234    0.6233236616    0.9698144665
   0.0000000000    0.6233236616    2.9094433996
   2.8721609234    4.7535751070    2.9094433996
