Al8 
1.0
5.3203718030883635e+00 -3.0717180927019592e+00 3.7617697301104686e-16 
0.0000000000000000e+00 6.1434361854039210e+00 3.7617697301104686e-16 
0.0000000000000000e+00 0.0000000000000000e+00 4.3187844944613900e+00 
Al 
8 
Cartesian
   1.2678119290   -0.7319715585    1.4213992544
   0.0000000000    1.4639431170    1.4213992544
   4.0525598741    2.3397465342    1.4213992544
   4.0525598741   -2.3397465342    3.5807915016
   0.0000000000    4.6794930685    3.5807915016
   1.2678119290    0.7319715585    3.5807915016
   0.0000000000    0.0000000000    1.4533199310
   0.0000000000    0.0000000000    3.6127121782
