Al
 1.0000000000000000
     8.7250293228383153   -0.0000000000007881   -0.0000000000007060
    -0.0000000000007886    8.7250293228383153    0.0000000000007078
    -0.0000000000002192    0.0000000000002194    2.8432517991684367
 Al 
   8
Cartesian
  5.3351059196406494  3.3899234031697913 -0.0040373801941373
  7.7524380646707813  0.9725912581396611 -0.0040373801858008
  0.9725912582061415  5.3351059195720758  1.4175885192983313
  3.3899234032383223  7.7524380646042905  1.4175885192983386
  7.7524380646041209  3.3899234032385244  1.4256632798699607
  5.3351059195718777  0.9725912582063023  1.4256632798699698
  3.3899234031695991  5.3351059196407888  2.8472891793624542
  0.9725912581394154  7.7524380646710318  2.8472891793540924
