Al8 
1.0
7.7904058463159398e+00 2.8364129810482944e-16 4.2348019708749094e+00 
0.0000000000000000e+00 3.6167735244448966e+00 2.2146350599761671e-16 
0.0000000000000000e+00 0.0000000000000000e+00 4.5407223788636317e+00 
Al 
8 
Cartesian
   1.4463454501    0.8245200635    3.8880595868
   6.3440603963    0.8245200635    4.8874647630
   6.3440603963    2.7922534610    4.8874647630
   1.4463454501    2.7922534610    3.8880595868
   5.4303815086    0.0000000000    7.0050091540
   2.3600243377    0.0000000000    1.7705151957
   0.0000000000    0.0000000000    0.0000000000
   3.8952029232    1.8083867622    2.1174009854
