Al8 
1.0
4.3349858782349031e+00 2.6544132900646759e-16 2.6544132900646759e-16 
0.0000000000000000e+00 4.3349858782349031e+00 2.6544132900646759e-16 
0.0000000000000000e+00 0.0000000000000000e+00 7.6347568963303276e+00 
Al 
8 
Cartesian
   4.0570192313    1.4490725248    0.0000000000
   0.2779666470    2.8859133534    0.0000000000
   2.8859133534    4.0570192313    0.0000000000
   1.4490725248    0.2779666470    0.0000000000
   0.2779666470    1.4490725248    3.8173784482
   4.0570192313    2.8859133534    3.8173784482
   1.4490725248    4.0570192313    3.8173784482
   2.8859133534    0.2779666470    3.8173784482
