Al8 
1.0
5.3856220039395666e+00 3.2977423742710719e-16 3.2977423742710719e-16 
0.0000000000000000e+00 5.3856220039395666e+00 3.2977423742710719e-16 
0.0000000000000000e+00 0.0000000000000000e+00 5.3856220039395666e+00 
Al 
8 
Cartesian
   2.6859085141    2.6859085141    2.6859085141
   0.0069024879    2.6997134899    5.3787195160
   2.6997134899    5.3787195160    0.0069024879
   5.3787195160    0.0069024879    2.6997134899
   4.0323140150    1.3395030131    1.3533079889
   4.0461189909    4.0461189909    4.0461189909
   1.3395030131    1.3533079889    4.0323140150
   1.3533079889    4.0323140150    1.3395030131
