Al8 
1.0
5.8573623671756669e+00 3.5866000372039222e-16 3.5866000372039222e-16 
0.0000000000000000e+00 5.8573623671756669e+00 3.5866000372039222e-16 
0.0000000000000000e+00 0.0000000000000000e+00 5.8573623671756669e+00 
Al 
8 
Cartesian
   0.6505677100    0.6505677100    0.6505677100
   5.2067946572    5.2067946572    0.6505677100
   5.2067946572    0.6505677100    5.2067946572
   0.6505677100    5.2067946572    5.2067946572
   3.5792488936    3.5792488936    3.5792488936
   2.2781134736    2.2781134736    3.5792488936
   2.2781134736    3.5792488936    2.2781134736
   3.5792488936    2.2781134736    2.2781134736
