Al8 
1.0
2.8284524451153663e+00 -1.6330077805774110e+00 1.9998577514668505e-16 
0.0000000000000000e+00 3.2660155611548234e+00 1.9998577514668505e-16 
0.0000000000000000e+00 0.0000000000000000e+00 1.7598708087370973e+01 
Al 
8 
Cartesian
   0.9428174817    1.6330077806    1.8414535170
   1.8856349634    0.0000000000   10.6408075607
   0.0000000000    0.0000000000    0.5458654578
   0.0000000000    0.0000000000    9.3452195015
   0.0000000000    0.0000000000   11.4737708728
   0.0000000000    0.0000000000    2.6744168291
   0.0000000000    0.0000000000    3.9576404276
   0.0000000000    0.0000000000   12.7569944713
