Al
 1.0000000000000000
     5.3212297688398928    0.0000000000000004    0.0000000000000004
     0.0000000000000000    5.3212297688398928    0.0000000000000004
     0.0000000000000000    0.0000000000000000    5.3212297688398928
 Al 
   8
Cartesian
  3.9909223266291507  1.3303074422052552  1.3303074422052545
  1.3303074422052537  3.9909223266291507  1.3303074422052541
  1.3303074422052537  1.3303074422052537  3.9909223266291525
  1.3303074422052537  3.9909223266291507  3.9909223266291507
  3.9909223266291507  1.3303074422052545  3.9909223266291507
  3.9909223266291507  3.9909223266291525  1.3303074422052543
  1.3303074422052537  1.3303074422052543  1.3303074422052548
  3.9909223266291525  3.9909223266291507  3.9909223266291525
