Al8 
1.0
3.4049571296218204e+00 0.0000000000000000e+00 0.0000000000000000e+00 
7.6986979661713353e-13 3.4049571296204171e+00 0.0000000000000000e+00 
-3.1096542689092568e-14 2.1950065795546405e-14 1.1945034310232851e+01 
Al 
8 
Cartesian
   0.4665720041    1.7419491931    0.1262649403
   0.4665718943    1.7419493029    6.0987820955
   0.4665720041    1.7419491931    8.5514272359
   0.4665718943    1.7419493029    2.5789100808
   0.4665717784    0.0394704706   10.3113632432
   2.1484089810    0.0828520841    0.3964739257
   2.1503009167    1.7866491124    9.6591378702
   2.1503009167    0.0847440198    3.6866207151
