Al8 
1.0
3.9324057961357388e+00 3.7089817938455360e-16 -1.7521370005559618e+00 
0.0000000000000000e+00 6.5875046267191815e+00 4.0336832277400126e-16 
0.0000000000000000e+00 0.0000000000000000e+00 4.2613713904899049e+00 
Al 
8 
Cartesian
   0.5832651867    2.0944849033    3.7924918754
   3.3491406094    5.3882372167    0.8474282098
   3.3491406094    4.4930197234   -1.2832574855
   0.5832651867    1.1992674100    1.6618061802
   0.4365718166    0.9541420754    3.3302255342
   3.4958339795    4.2478943888    1.3096945510
   3.4958339795    5.6333625513   -0.8209911442
   0.4365718166    2.3396102379    1.1995398389
