Al8 
1.0
4.4216882484420443e+00 2.7075031801410080e-16 2.7075031801410080e-16 
0.0000000000000000e+00 4.5943308068858428e+00 2.8132162584384121e-16 
0.0000000000000000e+00 0.0000000000000000e+00 3.0933438615813311e+00 
Al 
8 
Cartesian
   0.0000000000    3.2815643319    2.2389135406
   0.0000000000    1.3127664750    2.2389135406
   0.0000000000    3.2815643319    0.8544303210
   0.0000000000    1.3127664750    0.8544303210
   2.2108441242    0.9843989285    0.6922416098
   2.2108441242    3.6099318784    0.6922416098
   2.2108441242    0.9843989285    2.4011022518
   2.2108441242    3.6099318784    2.4011022518
