Al
 1.0000000000000000
     6.2499061431613736   -0.0000000000000021   -0.0000000000000142
    -0.0000000000000068    4.3864760586338916    0.0000000000000026
    -0.0000000000000082    0.0000000000000009    4.4626822929349830
 Al 
   8
Cartesian
  2.3423920450352331  1.0925681992235161  3.3504909028022025
  3.9075140997604549  3.2939078582597774  3.3504909211338489
  3.9075140997621887  1.0925682003716866  1.1121913718217746
  2.3423920450333924  3.2939078594149076  1.1121913901536233
  5.4673451150300885  3.2858062296902526  1.1191497742421666
  0.7825610264820420  1.1006698300960165  1.1191497559104995
  0.7825610264803878  3.2858062285422376  3.3435325370834690
  5.4673451150319279  1.1006698289409764  3.3435325187516267
