Al8 
1.0
5.7816079292681497e+00 3.5402138222515980e-16 3.5402138222515980e-16 
0.0000000000000000e+00 5.7816079292681497e+00 3.5402138222515980e-16 
0.0000000000000000e+00 0.0000000000000000e+00 5.7816079292681497e+00 
Al 
8 
Cartesian
   0.0000000000    0.0000000000    0.0000000000
   4.5099281147    2.8908039646    2.8908039646
   1.2716798145    2.8908039646    2.8908039646
   2.8908039646    4.5099281147    2.8908039646
   2.8908039646    1.2716798145    2.8908039646
   2.8908039646    2.8908039646    4.5099281147
   2.8908039646    2.8908039646    1.2716798145
   2.8908039646    2.8908039646    2.8908039646
