Al8 
1.0
3.8941138056520503e+00 2.3844570038036511e-16 2.3844570038036511e-16 
0.0000000000000000e+00 3.8941138056520503e+00 2.3844570038036511e-16 
0.0000000000000000e+00 0.0000000000000000e+00 7.0269986381639953e+00 
Al 
8 
Cartesian
   0.0000000000    1.9470569028    6.0947775923
   1.9470569028    0.0000000000    0.9322210458
   1.9470569028    0.0000000000    2.5812782733
   0.0000000000    1.9470569028    4.4457203649
   0.0000000000    0.0000000000    1.2599785585
   0.0000000000    0.0000000000    5.7670200797
   1.9470569028    1.9470569028    4.7734778776
   1.9470569028    1.9470569028    2.2535207606
