Al8 
1.0
3.0089594922461544e+00 1.8424563054716490e-16 1.8424563054716490e-16 
0.0000000000000000e+00 8.6610939417250332e+00 5.3033904864240473e-16 
0.0000000000000000e+00 0.0000000000000000e+00 5.9542988183854701e+00 
Al 
8 
Cartesian
   0.7522398731    2.1652734854    1.4885747046
   2.2567196192    6.4958204563    1.4885747046
   2.2567196192    2.1652734854    4.4657241138
   0.7522398731    6.4958204563    4.4657241138
   2.2567196192    6.4958204563    4.4657241138
   0.7522398731    2.1652734854    4.4657241138
   0.7522398731    6.4958204563    1.4885747046
   2.2567196192    2.1652734854    1.4885747046
