Al8 
1.0
3.8048906430267113e+00 1.4301574983046209e-16 -9.3543820050795661e-15 
-8.9966607523964502e-17 3.8048906430267095e+00 7.6104168011010267e-15 
-2.5183141080516558e-14 1.9518853514399466e-14 9.6231775308264549e+00 
Al 
8 
Cartesian
   0.2002041398    0.2241877497    4.9491873592
   2.1041227865    0.2220735943    2.7882118807
   0.1980899844    2.1251597460    2.7882118807
   0.2002041398    2.1230455906    0.1375985937
   2.1020086312    0.2241877497    0.1375985937
   0.1980899844    0.2220735943    7.5998006462
   2.1041227865    2.1251597460    4.0909188762
   2.1041227865    2.1251597460    0.0000000000
