Al
 1.0000000000000000
     4.2715860804438979   -2.4662013734140431    0.0000000000000001
     0.0000000000001025    4.9324027468282932    0.0000000000000003
    -0.0000000000000005   -0.0000000000000000    8.5769193123531373
 Al 
   8
Cartesian
  1.3830362858442529 -0.7984963719621337 -0.0000000000065412
 -0.0000000000190616  1.5969927438529785  0.0000000000020917
  2.8885497945736924  1.6677050014457886  0.0000000000192331
  1.3830362858420531 -0.7984963719664396  4.2884596561828880
 -0.0000000000142329  1.5969927438532228  4.2884596561742665
  2.8885497945710608  1.6677050014498489  4.2884596561571371
  1.4238620267945363  2.4662013734033383  2.1442298281025409
  2.8477240536138524 -0.0000000000110672  6.4326894842704734
