Al8 
1.0
3.9390327737106308e+00 2.4119619390306224e-16 2.4119619390306224e-16 
0.0000000000000000e+00 3.9390327737106308e+00 2.4119619390306224e-16 
0.0000000000000000e+00 0.0000000000000000e+00 3.9390327737106308e+00 
Al 
8 
Cartesian
   0.9847581934    0.9847581934    0.9847581934
   2.9542745803    2.9542745803    0.9847581934
   2.9542745803    0.9847581934    2.9542745803
   0.9847581934    2.9542745803    2.9542745803
   2.9542745803    2.9542745803    2.9542745803
   0.9847581934    0.9847581934    2.9542745803
   0.9847581934    2.9542745803    0.9847581934
   2.9542745803    0.9847581934    0.9847581934
