Al8 
1.0
5.1877522501822311e+00 5.3127164163829100e-16 -2.7872304424057481e+00 
0.0000000000000000e+00 8.9690203943493589e+00 5.4919410587136373e-16 
0.0000000000000000e+00 0.0000000000000000e+00 4.1641439403457889e+00 
Al 
8 
Cartesian
   0.4710908334    8.1144965552    1.9607511605
   4.7166614168    3.6299863580    1.4982343076
   4.7166614168    0.8545238392   -0.5838376626
   0.4710908334    5.3390340364   -0.1213208096
   3.0392981200    2.1896748261   -0.4269027098
   2.1484541302    6.6741850233   -0.2782557625
   2.1484541302    6.7793455682    1.8038162077
   3.0392981200    2.2948353710    1.6551692604
