Al
 1.0000000000000000
     8.6795178869181466    0.0000000000008977    1.3013740545924806
     0.0000000000005019    2.6630056326033769   -0.0000000000004966
    -0.8383155684029274   -0.0000000000015373    5.4499661871841054
 Al 
   8
Cartesian
  6.1763303677617092  1.3313157544964163  2.3300847152297024
  2.0840297359272548  1.3313157545510490  1.6962724325593399
  1.6648719513967283  1.3316898785106273  4.4212555263201052
  5.7571725838543468  1.3316898785627789  5.0550678086923035
  4.3397589429710264  0.0000000001874285  0.6506870274703006
  3.9206011589240459  0.0000000002037249  3.3756701209980222
 -0.0000000003064061  1.3315028154071789  0.0000000001164067
 -0.4191577850745711  1.3315028160363971  2.7249830939402933
