Al8 
1.0
4.1406000075322256e+00 -3.6929553559056569e-02 3.8789360154434477e-01 
-3.6929553559054848e-02 3.4638774748086671e+00 -1.0542988299709564e+00 
1.5336854487802923e-01 -4.1685729482388756e-01 9.8548800389038487e+00 
Al 
8 
Cartesian
   2.2591827965    2.5324934597    0.5279066441
   1.8796305949    0.8008389494    1.0187604124
   2.0191804704    2.2105221811    8.1367393055
   2.3569084455    0.4763193108    8.6936204807
  -0.1132877653    0.6108688590    5.7523189612
   4.4054697015    2.3056062553    5.6492281342
   4.3544281845    0.6662483620    3.9604929915
  -0.1317078135    2.4374504247    3.0149867557
