Al8 
1.0
3.4154301207563238e+00 2.0913477825478449e-16 2.0913477825478449e-16 
0.0000000000000000e+00 5.5648541074002935e+00 3.4074903851748851e-16 
0.0000000000000000e+00 0.0000000000000000e+00 6.7131807354294555e+00 
Al 
8 
Cartesian
   1.7077150604    0.0000000000    1.6782951839
   1.7077150604    0.0000000000    5.0348855516
   0.0000000000    2.7824270537    5.0348855516
   0.0000000000    2.7824270537    1.6782951839
   0.0000000000    0.0000000000    0.0000000000
   1.7077150604    2.7824270537    0.0000000000
   1.7077150604    2.7824270537    3.3565903677
   0.0000000000    0.0000000000    3.3565903677
