Al
 1.0000000000000000
     5.9055615852011920    0.0000000000000003    0.0000000000000016
     0.0000000000000005    4.6911285833724374   -0.0000000000128440
     0.0000000000000022   -0.0000000000109997    4.6922833920577878
 Al 
   8
Cartesian
  2.2145855944890709  1.1727821356966925  1.6372159379602718
  3.6909759906893931  3.5183464273829088  1.6372159537983266
  2.2145855944890918  3.5183464476515511  3.9833576498272221
  3.6909759906894131  1.1727821559653406  3.9833576339891641
  0.7381951980870346  1.1727821559653413  3.9833531976490151
  5.1673663870914295  3.5183464476515640  3.9833532134870620
  0.7381951980870541  3.5183464273829088  1.6372115174581763
  5.1673663870914517  1.1727821356966908  1.6372115016201203
