Al
 1.0000000000000000
     3.0785485966755668    0.0000000000007782   -0.0000000000000001
     0.0000000000007780    3.0785485966727326    0.0000000000000010
    -0.0000000000000007    0.0000000000000025   14.5248263237122721
 Al 
   8
Cartesian
  0.0000001211916929  0.0000000218601162  9.4024459305898009
  0.0000000218705303  0.0000001211339541  2.1400327687330063
  0.0000001211916949  0.0000000218601169  5.1223803931278908
  0.0000000218705300  0.0000001211339510 12.3847935549846788
 -0.0000000829067415  1.5392741776243284  7.2624131618588601
  1.5392741775681962 -0.0000000828671966  0.0000000000027163
  1.5392742570896187  1.5392742571078606  3.6312065809308280
  1.5392742570896181  1.5392742571078597 10.8936197427868802
