Al8 
1.0
5.2525455839207718e+00 3.2162565683620693e-16 3.2162565683620693e-16 
0.0000000000000000e+00 5.2525455839207718e+00 3.2162565683620693e-16 
0.0000000000000000e+00 0.0000000000000000e+00 6.2378847273471134e+00 
Al 
8 
Cartesian
   2.8725855151    4.5730093074    4.5895815264
   2.3799600688    0.6795362765    1.4706391628
   3.3058090684    0.2463127231    6.1490527083
   1.9467365155    5.0062328608    3.0301103446
   5.0062328608    1.9467365155    3.2077743827
   0.2463127231    3.3058090684    0.0888320191
   4.5730093074    2.8725855151    1.6483032009
   0.6795362765    2.3799600688    4.7672455646
