Al
 1.0000000000000000
     9.0545735140319010    0.0000000000557185   -0.0000000004579259
     0.0000000000178214    5.3582613578155227    0.0000000000000786
    -0.0000000002386265    0.0000000000001388    6.2210698784331413
 Al 
   8
Cartesian
  3.5808992927731835  2.6791306785900630  4.0395706954503492
  0.9463874620839291  2.6791306791783076  4.0395706908189615
  5.4736741983320902  2.6791306792039871  2.1814991283201057
  8.1081860688686618  2.6791306786158660  2.1814991235813519
  0.0000001783253323  4.0328274579579704  0.0000000286884065
  4.5272865815163561  1.3254338996870663  0.0000000303303429
  0.0000001783573135  1.3254338997814878  0.0000000283476530
  4.5272865814812917  4.0328274581064472  0.0000000299922703
