Al8 
1.0
3.4049571296218204e+00 0.0000000000000000e+00 0.0000000000000000e+00 
7.6986979661713353e-13 3.4049571296204171e+00 0.0000000000000000e+00 
-3.1096542689092568e-14 2.1950065795546405e-14 1.1945034310232851e+01 
Al 
8 
Cartesian
   2.7367589582    1.4429689057    0.5170784207
   2.7367588484    1.4429690155    2.9697235611
   1.0342801258    1.4429687899    4.7296595685
   1.0342802137    3.1454474008    1.7434009909
   0.0344855026    0.4938914284    9.5108322173
   1.7337536682    2.1969434654    9.5108322173
   1.7356456039    2.1950515298    6.2206854279
   0.0325935669    0.4957833641    6.2206854279
