Al
 1.0000000000000000
     5.3768447404721202    0.0000000000000006    0.0000000000000002
     0.0000000000000002    5.3952677596542911    0.0000000000000002
    -0.0000000000000000   -0.0000000000000000    9.0058235283053722
 Al 
   8
Cartesian
 -0.0000000000485630  2.6976338819909200  0.0000000000000274
  2.6884223701612386 -0.0000000013451569  4.5029117641621097
  0.0000000000146112  2.6976338811429543  4.5029117641620973
  2.6884223702244134 -0.0000000021931302  0.0000000000000252
 -0.0000000000115716  0.0000000021637994  0.0000000000022892
  2.6884223702505943  2.6976338784819700  4.5029117641599230
 -0.0000000000747463  0.0000000013158309  4.5029117641599328
  2.6884223701874217  2.6976338776339932  0.0000000000022962
