Al8 
1.0
3.4049571296218204e+00 0.0000000000000000e+00 0.0000000000000000e+00 
7.6986979661713353e-13 3.4049571296204171e+00 0.0000000000000000e+00 
-3.1096542689092568e-14 2.1950065795546405e-14 1.1945034310232851e+01 
Al 
8 
Cartesian
   1.5310026101    1.4934936351    4.0325837203
   1.5310026101    1.4934936351    0.5127117056
   3.2334810171    1.4934934095    2.2726477129
   3.2334811051    3.1959720204    5.2589062905
   1.4555479713    1.9724060908    9.0884520706
   3.1574530639    0.2667171268    9.0884520706
   3.1593449996    1.9705141551    6.4060817048
   1.4536560356    0.2686090625    6.4060817048
