Al8 
1.0
3.9852736509925091e+00 2.4402763102071312e-16 2.4402763102071312e-16 
0.0000000000000000e+00 3.9852736509925091e+00 2.4402763102071312e-16 
0.0000000000000000e+00 0.0000000000000000e+00 4.7195377599411712e+00 
Al 
8 
Cartesian
   0.0000000000    0.0000000000    2.3597688800
   1.9926368255    1.9926368255    2.3597688800
   0.0000000000    1.9926368255    0.0000000000
   1.9926368255    0.0000000000    0.0000000000
   2.9889552382    0.9963184127    1.9257013594
   2.9889552382    0.9963184127    4.2854702394
   0.9963184127    2.9889552382    2.7938364005
   0.9963184127    2.9889552382    0.4340675206
