Al
 1.0000000000000000
     5.4365436672399996   -0.0000000000073091   -0.0000000000325981
    -0.0000000000080166    4.8172604057702912   -0.0000000000000019
    -0.0000000000163795   -0.0000000000000009    5.2711418759230488
 Al 
   8
Cartesian
  1.3591359167185411  2.4086302027387192  3.9540532682330598
  4.0774077505849666  2.4086302029820730  3.9526595460605409
  4.0774077505932453  2.4086302027934239  1.3170886078748802
  1.3591359167266390  2.4086302030440652  1.3184823300473725
  0.0000000001748152  4.7781832907565551  1.3177854686625929
  2.7182718333396134  0.0390771151066002  1.3177854686245452
  0.0000000001623748  0.0390771150299447  3.9533564070437492
  2.7182718333356699  4.7781832906725468  3.9533564070055700
