Al
 1.0000000000000000
     6.8969825682057415    0.0000000000113765    0.0000000000113773
     0.0000000000113760    6.8969825682057415    0.0000000000113775
     0.0000000000113769    0.0000000000113771    6.8969825682057415
 Al 
   8
Cartesian
  0.7583758825423170  0.7583758825423185  0.7583758825423180
  2.6901154014535247  2.6901154014535229  0.7583758825395871
  2.6901154014535242  0.7583758825395860  2.6901154014535344
  0.7583758825395824  2.6901154014535282  2.6901154014535336
  4.2068671666799968  4.2068671666800022  6.1386066855939543
  6.1386066855912143  6.1386066855912045  6.1386066855911903
  4.2068671666799942  6.1386066855939454  4.2068671666800039
  6.1386066855939196  4.2068671666799915  4.2068671666799879
