Al
 1.0000000000000000
     7.5092068884961902   -0.0000000000000064    0.0000000000000004
    -0.0000000000000055    5.6247882205625075   -0.0000000000018159
     0.0000000000000000   -0.0000000000029095    4.8659034389832847
 Al 
   8
Cartesian
  1.3297737872135471  4.9190242141500748  2.7216411881819300
  6.1794331012834078  0.7057640064386400  0.2886894687009179
  1.3297737872134670  0.7057640064386228  0.2886894687009313
  6.1794331012832577  4.9190242141500988  2.7216411881819185
  1.3293234844489432  2.1064482428761062  2.7240126629920023
  6.1798834040474997  3.5183399777045450  5.1569643824906040
  1.3293234844492758  3.5183399777045268  5.1569643824906111
  6.1798834040478976  2.1064482428761395  2.7240126629920014
