Al8 
1.0
3.2083287721600602e+00 -1.9620323861481279e-01 1.1383645387184747e-01 
-1.9620323861481304e-01 4.0053755726356925e+00 -9.8248914396409134e-02 
4.5009588234718297e-02 -3.8846459381711572e-02 1.0876280912157691e+01 
Al 
8 
Cartesian
   0.6701147596    2.9439002285    3.5811577023
   2.3520899534    0.8565730605   -1.1300005193
   2.3105811257    2.8133322106   12.0837736545
   0.7815250700    0.9268111529    7.2586325237
   0.7709596535    0.9352279536    4.2485674671
   2.2962325642    2.8264179357    9.0735342879
   2.3661478761    0.8480011018    1.8625860034
   0.6808251041    2.9310954201    6.5736655261
