Al
 1.0000000000000000
     3.9921213336005423   -0.0000000000098298    0.0000000000052619
    -0.0000000000055433    3.9975500223620779   -0.0000000000023281
     0.0000000000071847   -0.0000000000039861    7.9563488912594043
 Al 
   8
Cartesian
  2.9870929512200406  3.0043847194758784  4.9719764339397070
  1.0050283823167843  0.9931653029910142  4.9719764335044347
  3.0010890490542201  1.0056097119744964  2.9843724570583126
  0.9910322845288835  2.9919403101491877  2.9843724582307325
  2.9961796167859163  2.9992416566595734  8.9458127674520664
  0.9959417168359465  0.9983083658926539  8.9458127690113098
  2.9920023836179528  1.0004666473914579 -0.9894638768983294
  1.0001189499647505  2.9970833748152881 -0.9894638768291277
