Al8 
1.0
4.3617100414805376e+00 2.6707771205540047e-16 2.6707771205540047e-16 
0.0000000000000000e+00 6.5924044175129177e+00 4.0366834842960332e-16 
0.0000000000000000e+00 0.0000000000000000e+00 6.7116165053515040e+00 
Al 
8 
Cartesian
   1.0904275104    1.6481011044    3.8308641600
   1.0904275104    4.9443033131    3.8308641600
   1.0904275104    4.9443033131    0.4750559074
   1.0904275104    1.6481011044    0.4750559074
   3.2712825311    1.6481011044    0.4750559074
   3.2712825311    4.9443033131    0.4750559074
   3.2712825311    4.9443033131    3.8308641600
   3.2712825311    1.6481011044    3.8308641600
