Al8 
1.0
4.7480490500175119e+00 2.9073415356492888e-16 2.9073415356492888e-16 
0.0000000000000000e+00 4.7480490500175119e+00 2.9073415356492888e-16 
0.0000000000000000e+00 0.0000000000000000e+00 8.6384429576957231e+00 
Al 
8 
Cartesian
   0.0000000000    1.1870122625    1.0798053697
   0.0000000000    3.5610367875    3.2394161091
   0.0000000000    3.5610367875    7.5586375880
   0.0000000000    1.1870122625    5.3990268486
   2.3740245250    3.5610367875    5.3990268486
   2.3740245250    1.1870122625    7.5586375880
   2.3740245250    1.1870122625    3.2394161091
   2.3740245250    3.5610367875    1.0798053697
