Al
 1.0000000000000000
     4.5463375041923246    0.0000000000029118   -3.3588414256914203
    -0.0000000000013503    8.0238809734340428   -0.0000000000115602
    -0.5393968773631799   -0.0000000000070345    3.8984260875530525
 Al 
   8
Cartesian
 -0.1367282612516968  7.0228072810747646  0.9745539286931990
  3.8739704498458787  3.0108667943800755  1.5142437757997840
  4.1436688884143216  1.0010736923596897 -0.4349692674082790
  0.1329701766351021  5.0130141790615985 -0.9746591134075300
  2.1423439142657807  3.0131539061430286 -0.7138441256040682
  2.1342951509439332  7.0250943928636724 -0.6957842554139553
  1.8645967129100309  5.0107270672782498  1.2534287869459044
  1.8726454756127779  0.9987865805619583  1.2353689177287817
