Al8 
1.0
5.1803667533563020e+00 3.1720597814535805e-16 3.1720597814535805e-16 
0.0000000000000000e+00 4.9675563843992201e+00 3.0417510128692519e-16 
0.0000000000000000e+00 0.0000000000000000e+00 3.7823045442163772e+00 
Al 
8 
Cartesian
   1.5947353951    0.9417272448    3.2885332936
   3.5856313583    4.0258291396    3.2885332936
   3.5856313583    0.9417272448    0.4937712507
   1.5947353951    4.0258291396    0.4937712507
   4.1849187717    3.4255054370    1.3973810214
   0.9954479816    1.5420509474    1.3973810214
   0.9954479816    3.4255054370    2.3849235228
   4.1849187717    1.5420509474    2.3849235228
