Al
 1.0000000000000000
     5.3076299810953627   -0.0000000000001422   -0.0000000000002178
    -0.0000000000001425    5.3076299810970102    0.0000000000001434
    -0.0000000000007207    0.0000000000004969    4.8920023241168078
 Al 
   8
Cartesian
  4.3695825919514837  1.7184532115315030  0.0000000000134248
  0.9380473880555243  3.5891767707300124  0.0000000000155977
  3.5891767697483106  4.3695825929075847  0.0000000000169381
  1.7184532105469863  0.9380473890090616  0.0000000000145106
  0.9380473890097281  1.7184532105434229  2.4460011620645319
  4.3695825929015761  3.5891767697385992  2.4460011620691571
  1.7184532115272457  4.3695825919487987  2.4460011620655187
  3.5891767707278417  0.9380473880462445  2.4460011620622746
