Al
 1.0000000000000000
     6.0981663675587416    0.0000000000197454    0.0000000000197462
     0.0000000000197451    6.0981663675587416    0.0000000000197446
     0.0000000000197458    0.0000000000197443    6.0981663675587416
 Al 
   8
Cartesian
  0.0000000000742843  0.0000000000742945  0.0000000000742938
  0.0000000000940569  3.0490831837810957  3.0490831837811023
  3.0490831837811032  0.0000000000940466  3.0490831837811005
  3.0490831837810934  3.0490831837810912  0.0000000000940544
  4.5736247756887263  4.5736247756887156  4.5736247756887325
  4.5736247756689981  1.5245415919819474  1.5245415919819469
  1.5245415919819347  4.5736247756689981  1.5245415919819372
  1.5245415919819376  1.5245415919819298  4.5736247756689927
