Al8 
1.0
3.8482360962030877e+00 -1.2576124679151793e-01 2.3855769259629503e-01 
-1.2576124679151657e-01 3.4510573644860574e+00 -8.0530359931265016e-01 
9.4322891734441749e-02 -3.1840752391867222e-01 1.0581636370692536e+01 
Al 
8 
Cartesian
   0.8752442796    2.5340240824    0.2676818361
   2.8684556312    0.7196222047    1.5467108829
   2.8739884850    2.2225263953    8.5844463992
   1.0158439907    0.5378174990    9.6238633873
   0.9921644885    0.6232193870    6.7202344679
   2.8458926607    2.3119034313    5.6796478171
   2.8965249259    0.6336980485    4.4633169255
   0.8991769368    2.4444042907    3.1849273311
