Al8 
1.0
3.7300426017480044e+00 2.2839923664569797e-16 2.2839923664569797e-16 
0.0000000000000000e+00 3.7300426017480044e+00 2.2839923664569797e-16 
0.0000000000000000e+00 0.0000000000000000e+00 5.3819824963134524e+00 
Al 
8 
Cartesian
   0.0000000000    0.0000000000    0.0000000000
   1.8650213009    1.8650213009    2.6909912482
   0.0000000000    1.8650213009    3.7205023102
   0.0000000000    1.8650213009    1.0295110621
   1.8650213009    0.0000000000    4.3524714342
   1.8650213009    0.0000000000    1.6614801861
   0.0000000000    0.0000000000    2.6909912482
   1.8650213009    1.8650213009    0.0000000000
