Al
 1.0000000000000000
     5.3077116061616758    0.0000000000000006    0.0000000000000023
     0.0000000000000003    5.3077116061615683    0.0000000000000006
     0.0000000000000016    0.0000000000000003    4.9173598159994123
 Al 
   8
Cartesian
  3.5934943929392422  3.5934943929391627  1.2293399539594416
  1.7142172132394915  1.7142172132394742  1.2293399539594339
  3.5934943929392751  1.7142172132394518  3.6880198619945133
  1.7142172132395077  3.5934943929391490  3.6880198619944764
  0.9396385898265310  0.9396385898265527  3.6880198619945292
  4.3680730163521844  4.3680730163521480  3.6880198619945621
  0.9396385898265212  4.3680730163521524  1.2293399539594136
  4.3680730163522403  0.9396385898265461  1.2293399539594376
