Al8 
1.0
2.2428050164354709e+00 -1.2948840799788615e+00 1.5857756438129787e-16 
0.0000000000000000e+00 2.5897681599577242e+00 1.5857756438129787e-16 
0.0000000000000000e+00 0.0000000000000000e+00 1.3234823876245109e+01 
Al 
8 
Cartesian
   0.2163116903    1.8049973879    9.0619810058
   0.5714755795    0.5797168050    9.0619810058
   1.4550177466    1.4999380470    9.0619810058
   0.5714755795    2.0100513550    4.1728428705
   1.4550177466    1.0898301129    4.1728428705
   0.2163116903    0.7847707720    4.1728428705
   0.0000000000    0.0000000000    0.0000000000
   0.7476016721    1.2948840800    0.0000000000
