Al8 
1.0
4.6875926351340329e+00 2.8703226581617999e-16 2.8703226581617999e-16 
0.0000000000000000e+00 4.6875926351340329e+00 2.8703226581617999e-16 
0.0000000000000000e+00 0.0000000000000000e+00 4.6875926351340329e+00 
Al 
8 
Cartesian
   0.0000000000    0.0000000000    0.0000000000
   0.0000000000    2.3437963176    2.3437963176
   2.3437963176    0.0000000000    2.3437963176
   2.3437963176    2.3437963176    0.0000000000
   3.5156944764    3.5156944764    3.5156944764
   3.5156944764    1.1718981588    1.1718981588
   1.1718981588    3.5156944764    1.1718981588
   1.1718981588    1.1718981588    3.5156944764
