Al
 1.0000000000000000
     6.7582588122496485    0.0000000000044136   -0.0000000028282973
     0.0000000000044131    6.7582588122496468   -0.0000000028293238
    -0.0000000008828275   -0.0000000008831419    5.3517539938620695
 Al 
   8
Cartesian
  0.0000000094551703  0.0000000094615305  3.2017206914197662
  3.3791294183732088  3.3791294183787679  0.5258436916525623
  5.0668175297209972  5.0668175297205105  4.5404024070310243
  1.6914412834342785  1.6914412834343215  4.5404024687412843
  5.0705706855074206  1.6876881195280218  1.8645254409557750
  1.6876881195279252  5.0705706855069712  1.8645254409729710
 -0.0000000084946340 -0.0000000085011108  0.5233844514293561
  3.3791293960105704  3.3791293960046653  3.1992614456519775
