Al
 1.0000000000000000
     5.2424239256866869    0.0000000000000004    0.0000000000000002
     0.0000000000000001    5.2424239256866869    0.0000000000000002
    -0.0000000000000001   -0.0000000000000000    9.9397452818106480
 Al 
   8
Cartesian
  0.0000000000167176  0.0000000000167158  4.9698726408932448
  2.6212119628599235  2.6212119628599275  4.9698726408931586
  2.6212119628593773  0.0000000000160218  4.9698726408932492
  0.0000000000160183  2.6212119628593702  4.9698726408932492
  3.9318179442684862  1.3106059814464643  7.0746503584099640
  1.3106059814464570  3.9318179442684862  7.0746503584099676
  1.3106059814464348  3.9318179442685004  2.8650949233352052
  3.9318179442685017  1.3106059814464581  2.8650949233351990
