Al
 1.0000000000000000
     4.6529071608490424   -2.6863572018307913   -0.0000000000478040
    -0.0000000000004937    5.3727144036605736    0.0000000000180564
    -0.0000000000750815    0.0000000000306144   10.3283320298868269
 Al 
   8
Cartesian
  2.3264535803696638 -1.3431786008994198  8.6260745631021560
 -0.0000000000498378  2.6863572018563886  8.6260745631345355
  2.3264535803603819  1.3431786009195728  8.6260745631129758
 -0.0000000000122973  2.6863572018410635  3.4619085481080805
  2.3264535804071920 -1.3431786009147235  3.4619085480743417
  2.3264535803979323  1.3431786009042677  3.4619085480819378
 -0.0000000000597291  0.0000000000170457  2.4111278185416065
 -0.0000000000972706  0.0000000000323567  7.5752938335534967
