Al8 
1.0
3.7538405270846362e+00 6.3908343587656999e-02 -2.7306836483232011e-01 
6.3908343587656485e-02 3.5215850000970450e+00 3.3521625159405732e-01 
-1.0796800359642746e-01 1.3254054339069823e-01 1.0562827994070991e+01 
Al 
8 
Cartesian
   0.9746150160    2.6737130152    1.3692715691
   2.8188886190    0.9415435604    1.0648591897
   2.7692305592    2.8065125061    9.4232905114
   0.8568275401    1.0142986926    9.3925304914
   0.8886165857    0.9758704239    6.4827613782
   2.7969190456    2.7719266951    6.5141973746
   2.7912711529    0.9800428493    3.9743248466
   0.9427549500    2.7082278059    4.2786681621
