Al8 
1.0
3.3295861070765613e+00 2.0715906634308751e-01 2.2431506858576347e-01 
2.0715906634308834e-01 4.1109117047195936e+00 -5.3819999853513356e-01 
8.8691526558415099e-02 -2.1279791752187283e-01 1.0245684310634687e+01 
Al 
8 
Cartesian
   0.8779854382    3.1055627259    0.7944842717
   2.6796187076    1.1647808984    1.1924595517
   3.0333407719    3.0680957122    8.8802835742
   0.6612901556    0.8721910907    8.9964631001
   1.0597321953    0.9548372968    6.2031819524
   2.5865634770    3.1027084100    6.0294461815
   2.2848767806    1.0823649047    3.9859899768
   1.3210626203    3.0707198157    3.6450723868
