Al
 1.0000000000000000
     5.3272717633627371    0.0000000000000003   -0.0000000000000001
    -0.0000000000000000    5.3272717633627398   -0.0000000000000002
    -0.0000000000000004   -0.0000000000000006    5.3272717633627398
 Al 
   8
Cartesian
  1.3314477702321530  1.3314477702321461  1.3314477702321514
  3.9958239932076172  3.9958239932076145  1.3314477702321503
  3.9958239932076185  1.3314477702321488  3.9958239932076141
  1.3314477702321470  3.9958239932076154  3.9958239932076176
  3.9950836520639221  3.9950836520639257  3.9950836520639261
  1.3321881113757512  1.3321881113757421  3.9950836520638919
  1.3321881113757512  3.9950836520638946  1.3321881113757428
  3.9950836520638942  1.3321881113757319  1.3321881113757423
