Al
 1.0000000000000000
     5.2835153951611229    0.0000000000000265    0.0000000000002996
     0.0000000000001318    8.7179747163183947    0.0000000000003166
     0.0000000000011065    0.0000000000002377    5.5738988913280183
 Al 
   8
Cartesian
  1.3208782397746248  2.1794936969082888  1.3934747210262186
  3.9626357265258010  6.5384810265609135  1.3934747232639688
  3.9626371554372657  2.1794936967411718  4.1804241694100712
  1.3208796687220552  6.5384810265969406  4.1804241676678320
  3.9626373661083552  6.5384810192733047  4.1804241689621886
  1.3208794581004575  2.1794936898590369  4.1804241662023864
  1.3208780291808060  6.5384810196010674  1.3934747220650165
  3.9626359371434043  2.1794936896068156  1.3934747240857688
