Al
 1.0000000000000000
     5.9152447617802615    0.0000000000079643   -0.0000000000308415
     0.0000000000079639    5.9152447617802615    0.0000000000307594
    -0.0000000000317364    0.0000000000316544    6.4816939850157018
 Al 
   8
Cartesian
 -0.0000035794911867 -0.0000036919990989  3.2408469965370865
  2.9576184957299381  2.9576186082653493  3.2408469965283988
  0.0000011858579490  2.9576233736457027  0.0000002211544227
  2.9576234858642749  0.0000012981951483 -0.0000002292057933
  4.4364347032244869  1.4788123223243841  1.6213578866389375
  4.4364350262065120  1.4788126453132751  4.8622047012862346
  1.4788123223184684  4.4364347032303266  4.8603362762345794
  1.4788126452964654  4.4364350262232541  1.6194891059806238
