Al
 1.0000000000000000
     4.5719268529032968   -2.6396031992455731    0.0000000000481624
    -0.0000000000001159    5.2792063984912474   -0.0000000001190693
    -0.0000000000066695   -0.0000000000623646    5.3257049304111685
 Al 
   8
Cartesian
  2.3208971351267103 -1.3399705856623148  1.4259317042215267
 -0.0000000000192822  2.6799411713842143  1.4259317040642248
  2.2510297177971128  1.2996326134952776  1.4259317041626132
  2.2510297179485144 -1.2996326133986664  4.0887841693706077
 -0.0000000000223827  2.5992652269395844  4.0887841692374725
  2.3208971349688912  1.3399705857590498  4.0887841693101237
 -0.0000000000005913 -0.0000000000402207  2.7727563129429016
 -0.0000000000039467 -0.0000000001931713  5.4356087781545677
