Al8 
1.0
3.8048906430267113e+00 1.4301574983046209e-16 -9.3543820050795661e-15 
-8.9966607523964502e-17 3.8048906430267095e+00 7.6104168011010267e-15 
-2.5183141080516558e-14 1.9518853514399466e-14 9.6231775308264549e+00 
Al 
8 
Cartesian
   1.9966543651    3.6097601872    9.4831550309
   0.0935682135    1.7037273851    9.4831550309
   1.9945402097    1.7058415405    7.3221795524
   1.9966543651    1.7037273851    4.6715662654
   0.0956823688    1.7058415405    2.5105907870
   1.9945402097    3.6076460319    2.5105907870
   0.0956823688    0.5290974352    0.0000000000
   1.6349567088    0.5290975147    6.1818854684
