Al8 
1.0
3.0785485966755668e+00 7.7815620680818810e-13 -5.6482602365239207e-17 
7.7796770007475610e-13 3.0785485966727326e+00 9.5541823876105823e-16 
-7.4324523375350793e-16 2.4533703307240353e-15 1.4524826323712272e+01 
Al 
8 
Cartesian
   2.8533474679    0.9494290197    8.3429009011
   1.3140730269    0.9494288157   10.4829336698
   1.3140731065    2.4887031557    6.8517270889
   0.9515430758    2.8554617226    1.0804877392
   2.8533475672    0.9494289205    1.0804877392
   2.8554617226    2.8533475672    8.5426897916
   0.9494289205    0.9515430758    8.5426897916
   2.8554617226    0.9515430758    3.7311010262
