Al8 
1.0
4.1161565986009068e+00 1.7613180602962488e-02 3.1141987343809591e-01 
1.7613180602961555e-02 3.5810630669443695e+00 2.7865739180758763e-02 
1.2313173675755840e-01 1.1017783879639566e-02 9.4610546524358572e+00 
Al 
8 
Cartesian
   1.0564291634    2.6931273736    1.1610782614
   3.1049910112    0.9080230215    1.3027766048
   3.2115728707    2.7084946330    8.6533787012
   1.1408099866    0.9097430349    8.4834469627
   1.1091718347    0.9047282896    5.8776464445
   3.1753800767    2.7074398894    6.0472630741
   3.1412033785    0.9130573400    3.9089231986
   1.0880477421    2.6941625439    3.7668478128
