Al8 
1.0
5.3150039662232142e+00 3.2545012973453733e-16 3.2545012973453733e-16 
0.0000000000000000e+00 5.3150039662232142e+00 3.2545012973453733e-16 
0.0000000000000000e+00 0.0000000000000000e+00 5.3150039662232142e+00 
Al 
8 
Cartesian
   1.1487291739    1.1487291739    1.1487291739
   4.1662747924    4.1662747924    1.1487291739
   4.1662747924    1.1487291739    4.1662747924
   1.1487291739    4.1662747924    4.1662747924
   3.8062311570    3.8062311570    3.8062311570
   1.5087728093    1.5087728093    3.8062311570
   1.5087728093    3.8062311570    1.5087728093
   3.8062311570    1.5087728093    1.5087728093
