Al8 
1.0
3.4120604192664858e+00 6.8217536236757845e-02 -4.5039842172136246e-02 
6.8217536236758344e-02 4.2774796461387234e+00 -2.2743768693562247e-01 
-1.7808221192574480e-02 -8.9926172942432825e-02 9.5535140375966812e+00 
Al 
8 
Cartesian
   0.9024982489    3.2170895103    0.8907167016
   2.5737807022    1.1084138999    0.9821376517
   2.5960025512    3.1791155473    8.2764878692
   0.8526579663    1.0069230614    8.4127307944
   0.8594210506    1.0293535347    5.7814070059
   2.5990496794    3.2062237026    5.6449613851
   2.5708093831    1.0860592356    3.6134113882
   0.8956593556    3.1899055461    3.5222932378
