Al8 
1.0
3.8048906430267113e+00 1.4301574983046209e-16 -9.3543820050795661e-15 
-8.9966607523964502e-17 3.8048906430267095e+00 7.6104168011010267e-15 
-2.5183141080516558e-14 1.9518853514399466e-14 9.6231775308264549e+00 
Al 
8 
Cartesian
   0.5668830267    0.6537749399    3.0591403338
   2.4686875181    2.5526327808    3.0591403338
   0.5647688713    2.5547469362    0.8981648554
   0.5668830267    2.5526327808    7.8707290992
   2.4708016734    2.5547469362    5.7097536208
   0.5647688713    0.6516607846    5.7097536208
   2.4686875181    0.6537749399    0.0000000000
   2.4686875976    2.1930492799    9.3859505565
