Al8 
1.0
5.8568647959806395e+00 3.5862953627182532e-16 3.5862953627182532e-16 
0.0000000000000000e+00 5.8568647959806395e+00 3.5862953627182532e-16 
0.0000000000000000e+00 0.0000000000000000e+00 5.8568647959806395e+00 
Al 
8 
Cartesian
   0.4815781674    0.4815781674    0.4815781674
   2.4468542305    2.4468542305    0.4815781674
   2.4468542305    0.4815781674    2.4468542305
   0.4815781674    2.4468542305    2.4468542305
   3.4100105654    3.4100105654    5.3752866285
   5.3752866285    5.3752866285    5.3752866285
   3.4100105654    5.3752866285    3.4100105654
   5.3752866285    3.4100105654    3.4100105654
