Al8 
1.0
3.4049571296218204e+00 0.0000000000000000e+00 0.0000000000000000e+00 
7.6986979661713353e-13 3.4049571296204171e+00 0.0000000000000000e+00 
-3.1096542689092568e-14 2.1950065795546405e-14 1.1945034310232851e+01 
Al 
8 
Cartesian
   0.0087963680    1.5534781971    1.9440007521
   0.0106883037    3.2572752254   11.2066646966
   0.0106883037    1.5553701328    5.2341475415
   3.1770055221    2.9584176698    5.5911750432
   3.1770054123    2.9584177796   11.5636921983
   3.1770055221    2.9584176698    2.0713030285
   3.1770054123    2.9584177796    8.0438201836
   3.1770052964    1.2559389473    3.8312390358
