Al8 
1.0
4.2014492843749673e+00 2.5726457089448709e-16 2.5726457089448709e-16 
0.0000000000000000e+00 4.2014492843749673e+00 2.5726457089448709e-16 
0.0000000000000000e+00 0.0000000000000000e+00 1.1092849270521816e+01 
Al 
8 
Cartesian
   0.8908911358    3.4027288460    0.2576914165
   3.3105581486    0.7987204384    0.2576914165
   3.4027288460    3.3105581486   10.8351578540
   0.7987204384    0.8908911358   10.8351578540
   0.8908911358    0.7987204384    5.8041160517
   3.3105581486    3.4027288460    5.8041160517
   3.4027288460    0.8908911358    5.2887332188
   0.7987204384    3.3105581486    5.2887332188
