Al8 
1.0
3.8048906430267113e+00 1.4301574983046209e-16 -9.3543820050795661e-15 
-8.9966607523964502e-17 3.8048906430267095e+00 7.6104168011010267e-15 
-2.5183141080516558e-14 1.9518853514399466e-14 9.6231775308264549e+00 
Al 
8 
Cartesian
   1.2275617464    2.4699051649    8.7226519347
   3.1314803932    2.4677910095    6.5616764563
   3.1293662378    2.4699051649    3.9110631693
   1.2254475911    2.4677910095    1.7500876909
   0.0508177405    0.5638722635    7.8989448020
   0.0508176412    0.5638723628    0.6365316402
   0.0508177405    0.5638722635    3.6188792646
   0.0508176412    0.5638723628    0.0000000000
