Al
 1.0000000000000000
     5.3091075074569831   -0.0000000000000002    0.0000000000000005
    -0.0000000000000005    5.3091075074569831    0.0000000000000004
     0.0000000000000002    0.0000000000000001    5.3091075074569831
 Al 
   8
Cartesian
  1.3262660349198379  1.3262660349198592  1.3262660349198248
  3.9828414724958781  3.9828414724958758  1.3262660349198434
  3.9828414724958896  1.3262660349198347  3.9828414724958896
  1.3262660349198214  3.9828414724958816  3.9828414724958825
  1.3262660349198536  1.3262660349198354  3.9828414724958625
  3.9828414724958625  3.9828414724958758  3.9828414724958798
  1.3262660349198356  3.9828414724958940  1.3262660349198383
  3.9828414724958772  1.3262660349198343  1.3262660349198498
