Al8 
1.0
4.5630769609113768e+00 -2.6344937117151610e+00 3.2263242914258036e-16 
0.0000000000000000e+00 5.2689874234303247e+00 3.2263242914258036e-16 
0.0000000000000000e+00 0.0000000000000000e+00 7.8272315843863751e+00 
Al 
8 
Cartesian
   0.0000000000    0.0000000000    1.9568078961
   0.0000000000    0.0000000000    5.8704236883
   2.2815384805   -1.3172468559    0.0000000000
   0.0000000000    2.6344937117    0.0000000000
   2.2815384805    1.3172468559    0.0000000000
   0.0000000000    2.6344937117    3.9136157922
   2.2815384805   -1.3172468559    3.9136157922
   2.2815384805    1.3172468559    3.9136157922
