Al8 
1.0
4.5962353683561723e+00 2.8143824659926212e-16 2.8143824659926212e-16 
0.0000000000000000e+00 4.5962353683561723e+00 2.8143824659926212e-16 
0.0000000000000000e+00 0.0000000000000000e+00 5.8736406420786063e+00 
Al 
8 
Cartesian
   3.8322119899    1.5340943057    3.7646375876
   0.7640233784    3.0621410626    3.7646375876
   3.0621410626    3.8322119899    3.7646375876
   1.5340943057    0.7640233784    3.7646375876
   2.2981176842    0.0000000000    1.4477893376
   0.0000000000    2.2981176842    1.4477893376
   2.2981176842    0.0000000000    2.9333939022
   0.0000000000    2.2981176842    2.9333939022
