Al
 1.0000000000000000
     3.4704357688883198    0.0000000000000711    0.0000000000000056
     0.0000000000000349    5.3700627187830570    0.0000000000540695
     0.0000000000000021    0.0000000000838861    7.8441828695051923
 Al 
   8
Cartesian
  0.0000000000020479  2.6850313598041540  2.3303634875069879
  0.0000000000020457  2.6850313590291686  5.5138193820774735
  1.7352178844463162  0.0000000004588935  6.2524549222325891
  1.7352178844463069 -0.0000000003999799  1.5917279472997794
  0.0000000000024169  1.3792268701646142  0.0000000004803650
  0.0000000000025572  3.9908358486033157 -0.0000000004014701
  1.7352178844458377  4.0642582295863301  3.9220914352613447
  1.7352178844459425  1.3058044892415381  3.9220914343254432
