Al8 
1.0
7.4580630612993675e+00 4.5667465279296907e-16 4.5667465279296907e-16 
0.0000000000000000e+00 5.7216567104240257e+00 3.5035042881203788e-16 
0.0000000000000000e+00 0.0000000000000000e+00 4.6820617810547160e+00 
Al 
8 
Cartesian
   1.1570141664    4.5066233797    3.0251450071
   6.3010488949    1.2150333308    0.6841141165
   1.1570141664    1.2150333308    0.6841141165
   6.3010488949    4.5066233797    3.0251450071
   0.9916110334    1.6358600905    2.2147632832
   6.4664520279    4.0857966199    4.5557941737
   0.9916110334    4.0857966199    4.5557941737
   6.4664520279    1.6358600905    2.2147632832
