Al8 
1.0
3.4049571296218204e+00 0.0000000000000000e+00 0.0000000000000000e+00 
7.6986979661713353e-13 3.4049571296204171e+00 0.0000000000000000e+00 
-3.1096542689092568e-14 2.1950065795546405e-14 1.1945034310232851e+01 
Al 
8 
Cartesian
   2.9407359783    0.8979815910    3.1380194635
   2.9407360882    0.8979814812    5.5906646039
   1.2382572557    0.8979813654    1.3780834562
   1.2382573437    2.6004599762    4.3643420337
   2.4653839626    0.4344658388   11.3589580334
   0.7596949986    2.1375178758   11.3589580334
   0.7615869343    2.1356259401    8.0688112441
   2.4634920269    0.4363577745    8.0688112441
