Al8 
1.0
5.8818005656038004e+00 -3.3958591398710452e+00 4.1587280259983610e-16 
0.0000000000000000e+00 6.7917182797420930e+00 4.1587280259983610e-16 
0.0000000000000000e+00 0.0000000000000000e+00 4.4444389822039740e+00 
Al 
8 
Cartesian
   0.0000000000    0.0000000000    1.1581138615
   0.0000000000    0.0000000000    3.2863251207
   4.4452111587   -0.9076132975    1.5217509136
   4.4452111587    0.9076132975    1.5217509136
   2.8731788138    0.0000000000    1.5217509136
   4.4452111587   -0.9076132975    2.9226880686
   4.4452111587    0.9076132975    2.9226880686
   2.8731788138    0.0000000000    2.9226880686
