Al8 
1.0
4.9266369656637163e+00 -2.8875238648505461e+00 2.4470716035332829e-01 
-3.7350538159284262e-02 5.2575774185469459e+00 6.0413479854681588e-02 
1.2187216200631958e-01 -3.5620426150788059e-02 7.0122328566212309e+00 
Al 
8 
Cartesian
   1.5951259233   -0.9349104071    0.0792302615
  -0.0120932011    1.7022764398    0.0195604240
   3.3062537053    1.6026875209    0.2063299547
   1.6560620043   -0.9527206202    3.5853466898
   0.0488428799    1.6844662268    3.5256768523
   3.3671897863    1.5848773078    3.7124463830
   1.6477800036    2.5336385509    1.8749029209
   3.3633785859   -0.1992054233    5.4424505760
