Al8 
1.0
5.2209334949482393e+00 3.1968997465747825e-16 3.1968997465747825e-16 
0.0000000000000000e+00 6.4248165417411274e+00 3.9340655064761196e-16 
0.0000000000000000e+00 0.0000000000000000e+00 5.3128793782725250e+00 
Al 
8 
Cartesian
   1.5730188200    0.0000000000    1.3282198446
   3.6479146749    0.0000000000    1.3282198446
   3.6479146749    0.0000000000    3.9846595337
   1.5730188200    0.0000000000    3.9846595337
   0.0000000000    3.2124082709    1.3282198446
   0.0000000000    3.2124082709    3.9846595337
   0.0000000000    3.2124082709    0.0000000000
   0.0000000000    3.2124082709    2.6564396891
