Al
 1.0000000000000000
     4.4118631760049203    0.0000003926282932    0.0000070416197479
     0.0000003926282451    4.4118742403666653   -0.0000000752861042
     0.0000011704168782    0.0000000023399177    6.3239868613656762
 Al 
   8
Cartesian
  0.0000023551636202  2.2059146205377473 -0.0000061297034684
  2.2059325130844392  0.0000072731141748 -0.0000056944933592
  2.2059313311335620  0.0000172234755085  3.1619657598932966
  0.0000037013204831  2.2059290884577298  3.1619671477957665
  0.0000071478008106  0.0000144928224710  4.7498451389985910
  0.0000009617115444  0.0000134837098885  1.5741134167099762
  2.2059314126375389  2.2059223283374618  1.5878349675253711
  2.2059331956291950  2.2059222158138945  4.7361143449562837
