Al
 1.0000000000000000
     4.5718306688951165   -2.6395476673983582    0.0000000000462168
     0.0000000000839783    5.2790953349389174   -0.0000000000421321
    -0.0000000000511608    0.0000000000110170    5.3219962906224172
 Al 
   8
Cartesian
  2.2521031807666287 -1.3002523767490155  1.4690967741204946
 -0.0000000007762326  2.6005047537532122  1.4690967725392905
  2.3197274883516608  1.3392952905133142  1.4690967728956492
  0.0000000007226777 -0.0000000003619900  5.4369885487223364
  2.3247950643212780 -1.3422210565202635  4.1344662804755234
  0.0000000002401211  2.6844421155455240  4.1344662790006783
  2.2470356027039049  1.2973266101481393  4.1344662792354017
  0.0000000012963005 -0.0000000011181995  2.7724340402566292
