Al8 
1.0
4.7847307904500429e+00 2.9298026236532151e-16 2.9298026236532151e-16 
0.0000000000000000e+00 3.6582694868096461e+00 2.2400440087199318e-16 
0.0000000000000000e+00 0.0000000000000000e+00 6.7560048911109405e+00 
Al 
8 
Cartesian
   2.8371644365    2.5377681882    5.2832641173
   1.9475663539    1.1205012986    5.2832641173
   4.3399317491    0.7086334448    1.4727407739
   0.4447990413    2.9496360420    1.4727407739
   3.4817992203    2.6796665769    6.7461654762
   1.3029315702    0.9786029099    6.7461654762
   3.6952969654    0.8505318335    0.0098394150
   1.0894338250    2.8077376533    0.0098394150
