Al8 
1.0
7.9971297125152248e+00 4.8968296523989818e-16 4.8968296523989818e-16 
0.0000000000000000e+00 3.7437930562536148e+00 2.2924120915055382e-16 
0.0000000000000000e+00 0.0000000000000000e+00 5.3522304556825597e+00 
Al 
8 
Cartesian
   2.8219056423    1.8718965281    3.7526694983
   1.1766592140    1.8718965281    3.7526694983
   5.1752240702    1.8718965281    1.5995609574
   6.8204704985    1.8718965281    1.5995609574
   0.0000000000    3.1188960035    0.0000000000
   3.9985648563    0.6248970527    0.0000000000
   0.0000000000    0.6248970527    0.0000000000
   3.9985648563    3.1188960035    0.0000000000
