Al8 
1.0
3.3151176389489949e+00 1.8110669857915191e-16 3.7901692841354384e-01 
0.0000000000000000e+00 4.1858169982003348e+00 2.5630736943313111e-16 
0.0000000000000000e+00 0.0000000000000000e+00 5.0898982368067278e+00 
Al 
8 
Cartesian
   2.3740054217    2.4965432220    2.5059524696
   0.9411122173    2.4965432220    2.9629626956
   1.6575588195    1.2627690022    2.7344575826
   0.0000000000    0.9552368858    0.0000000000
   1.6575588195    1.6128730643    0.1895084642
   0.7281920166    3.5794377818    4.0748000477
   2.5869256224    3.5794377818    1.3941151175
   1.6575588195    3.4923488846    0.1895084642
