Al
 1.0000000000000000
     6.6822455923929294   -0.0000000000000096    3.4512211048014008
    -0.0000000000000050    5.5966753807511651    0.0000000000000015
    -0.5276391700033443    0.0000000000000038    4.5715124751686407
 Al 
   8
Cartesian
  1.7281103538815679  1.4672936173213140  4.0788620221402967
  4.4264960708067385  1.4672936176207065  3.9438715590336444
  4.4264960709261780  4.1293817630501923  3.9438715588234281
  1.7281103537631208  4.1293817633507617  4.0788620223507639
  4.1201585554735756  0.0000000002016887  6.1394972436265061
  2.0344478620138511  0.0000000002021508  1.8832363368245448
  0.0000000006503075 -0.0000000000953840 -0.0000000032389361
  3.3411227960244232  2.7983376903629305  1.7256105527777128
