Al
 1.0000000000000000
     4.9081580413780754   -2.8337263664054606    0.0000000000043760
    -0.0000000000251821    5.6674527327672832    0.0000000000045793
     0.0000000000059290    0.0000000000036622    4.4648228080579822
 Al 
   8
Cartesian
  1.6360526804572095  2.8337263663782672  1.8575239685843055
  0.8241208513496446  1.4170222329342195  4.0903455154667059
  3.2689203642253313  2.8389248429303322  4.0903455154697994
  0.8151168257742201  4.2452320232268432  4.0903455154745059
  4.0951121563137525 -1.4127260647401532  1.8492925439691366
  4.0840586238842169  1.4191078246464344  1.8492925439759091
  1.6371453025654024 -0.0063817598989412  1.8492925439698749
  3.2721053608981565 -0.0000000000231098 -0.3763023525663424
