Al8 
1.0
3.0785485966755668e+00 7.7815620680818810e-13 -5.6482602365239207e-17 
7.7796770007475610e-13 3.0785485966727326e+00 9.5541823876105823e-16 
-7.4324523375350793e-16 2.4533703307240353e-15 1.4524826323712272e+01 
Al 
8 
Cartesian
   2.8533476665    2.8554616233   13.1544896665
   2.8533474624    1.3161871824   11.0144568977
   1.3140732058    1.3161872619    0.1208371549
   2.8554617226    2.8533475672    8.5426897916
   0.9515430758    0.9494289205    5.8920765046
   2.8533475672    2.8554617226    5.8920765046
   2.8554617226    0.9515430758    3.7311010262
   0.9494289205    2.8533475672    3.7311010262
