Al8 
1.0
4.8270043001174248e+00 -2.7868722320522745e+00 3.4129341586154595e-16 
0.0000000000000000e+00 5.5737444641045517e+00 3.4129341586154595e-16 
0.0000000000000000e+00 0.0000000000000000e+00 4.7233894255729814e+00 
Al 
8 
Cartesian
   1.6090014334    2.7868722321    0.1465282651
   0.0852008743    2.3161427864    3.6363804667
   2.7785653711    1.7025869604    3.6363804667
   1.9632380547    4.3418869493    3.6363804667
   3.7548827094   -0.7660328836    3.1045763081
   3.6129668828    0.8479680243    3.1045763081
   2.2861590081   -0.0819351407    3.1045763081
   3.2180028667    0.0000000000    0.0484458003
