Al8 
1.0
6.2380913333760697e+00 3.8197292921039243e-16 3.8197292921039243e-16 
0.0000000000000000e+00 6.2380913333760697e+00 3.8197292921039243e-16 
0.0000000000000000e+00 0.0000000000000000e+00 4.0273703216244217e+00 
Al 
8 
Cartesian
   5.8248247480    1.9636229941    0.4022483460
   0.4132665854    4.2744683393    0.4022483460
   1.9636229941    0.4132665854    3.6251219756
   4.2744683393    5.8248247480    3.6251219756
   2.7057790813    1.1554226726    2.4159335068
   3.5323122521    5.0826686607    2.4159335068
   5.0826686607    2.7057790813    1.6114368148
   1.1554226726    3.5323122521    1.6114368148
