Al8 
1.0
4.1682352080164691e+00 2.5523079527953356e-16 2.5523079527953356e-16 
0.0000000000000000e+00 4.9824967308103538e+00 3.0508993365745257e-16 
0.0000000000000000e+00 0.0000000000000000e+00 4.5847345911937261e+00 
Al 
8 
Cartesian
   1.4459788279    1.2456241827    1.3924291728
   2.7222563801    3.7368725481    1.3924291728
   1.4459788279    3.7368725481    3.6847964684
   2.7222563801    1.2456241827    3.6847964684
   0.7921987342    1.2456241827    4.0993145387
   3.3760364738    3.7368725481    4.0993145387
   0.7921987342    3.7368725481    1.8069472431
   3.3760364738    1.2456241827    1.8069472431
