Al8 
1.0
3.9123810016211746e+00 2.3956424353401434e-16 2.3956424353401434e-16 
0.0000000000000000e+00 3.9123810016211746e+00 2.3956424353401434e-16 
0.0000000000000000e+00 0.0000000000000000e+00 4.2055797489362856e+00 
Al 
8 
Cartesian
   0.0000000000    1.1817385144    0.5613592226
   1.9561905008    0.7744519864    2.6641490971
   2.7306424872    1.9561905008    1.6127541599
   3.1379290152    0.0000000000    3.7155440343
   1.9561905008    3.1379290152    2.6641490971
   0.0000000000    2.7306424872    0.5613592226
   0.7744519864    0.0000000000    3.7155440343
   1.1817385144    1.9561905008    1.6127541599
