Al
 1.0000000000000000
     3.8048906430267113    0.0000000000000001   -0.0000000000000094
    -0.0000000000000001    3.8048906430267095    0.0000000000000076
    -0.0000000000000252    0.0000000000000195    9.6231775308264549
 Al 
   8
Cartesian
  0.9515430758181196  2.8554617225807917  1.0804877392003898
  2.8533475672312520  0.9494289204685270  1.0804877392003689
  2.8554617225807850  2.8533475672312543  8.5426897916070654
  0.9494289204685175  0.9515430758181369  8.5426897916070619
  0.9515430758220381  0.9494289204717431  5.8920765046052628
  2.8533475672273600  2.8554617225776178  5.8920765046052646
  2.8554617225776084  0.9515430758220360  3.7311010262021740
  0.9494289204717296  2.8533475672273467  3.7311010262021989
