Al
 1.0000000000000000
     4.4351928280649169    0.0000000000000000   -0.0000000000000016
    -0.0000000000000002    4.4351928280648902   -0.0000000000000002
    -0.0000000000000009   -0.0000000000000003    6.3201985668853338
 Al 
   8
Cartesian
  0.0000000000022730  0.0000000000022818 -0.0000000000140859
  2.2175964140349977  2.2175964140349622  3.1600992834285710
  0.0000000000022923  2.2175964140349618  1.5800496417073304
  0.0000000000022800  2.2175964140349858  4.7401489251499944
  2.2175964140349804  0.0000000000022846  1.5800496417073309
  2.2175964140349782  0.0000000000022855  4.7401489251500006
  0.0000000000022619  0.0000000000022778  3.1600992834285830
  2.2175964140349875  2.2175964140349818 -0.0000000000140922
