Al8 
1.0
3.8048906430267113e+00 1.4301574983046209e-16 -9.3543820050795661e-15 
-8.9966607523964502e-17 3.8048906430267095e+00 7.6104168011010267e-15 
-2.5183141080516558e-14 1.9518853514399466e-14 9.6231775308264549e+00 
Al 
8 
Cartesian
   0.7671868098    0.4714782112    5.2233815815
   0.7693009651    2.3753968579    3.0624061031
   2.6681588060    0.4735923665    3.0624061031
   2.6702729614    0.4714782112    0.4117928161
   0.7671868098    2.3775110133    0.4117928161
   0.7693009651    0.4735923665    7.8739948685
   2.6681588060    2.3753968579    0.0000000000
   1.1288845493    2.3753969374    7.4862168049
