Al8 
1.0
3.9456149015186441e+00 2.1629121174111116e-16 4.3749192933676001e-01 
0.0000000000000000e+00 3.8245432752361803e+00 2.3418573401092614e-16 
0.0000000000000000e+00 0.0000000000000000e+00 5.9675572996790063e+00 
Al 
8 
Cartesian
   0.0000000000    0.0000000000    2.9837786498
   1.9728074508    1.9122716376    3.2025246145
   0.9864037254    0.9561358188    0.1093729823
   2.9592111761    0.9561358188    0.3281189470
   2.9592111761    2.8684074564    0.3281189470
   0.9864037254    2.8684074564    0.1093729823
   0.0000000000    1.9122716376    0.0000000000
   1.9728074508    0.0000000000    0.2187459647
