Al8 
1.0
4.9918509250998708e+00 3.0566271286221552e-16 3.0566271286221552e-16 
0.0000000000000000e+00 4.9918509250998708e+00 3.0566271286221552e-16 
0.0000000000000000e+00 0.0000000000000000e+00 4.9918509250998708e+00 
Al 
8 
Cartesian
   3.1199068282    3.1199068282    3.1199068282
   1.8719440969    1.8719440969    1.8719440969
   3.1199068282    0.6239813656    0.6239813656
   1.8719440969    4.3678695595    4.3678695595
   0.6239813656    3.1199068282    0.6239813656
   4.3678695595    1.8719440969    4.3678695595
   0.6239813656    0.6239813656    3.1199068282
   4.3678695595    4.3678695595    1.8719440969
