Al8 
1.0
5.9271988028908780e+00 3.6293625209351686e-16 3.6293625209351686e-16 
0.0000000000000000e+00 5.9271988028908780e+00 3.6293625209351686e-16 
0.0000000000000000e+00 0.0000000000000000e+00 5.4607321973256999e+00 
Al 
8 
Cartesian
   3.4490457809    0.4854463794    0.1406553836
   2.4781530220    5.4417524234    0.1406553836
   5.4417524234    3.4490457809    0.1406553836
   0.4854463794    2.4781530220    0.1406553836
   2.9635994014    0.0000000000    1.3044772037
   0.0000000000    2.9635994014    1.3044772037
   0.0000000000    0.0000000000    4.8289168092
   2.9635994014    2.9635994014    4.8289168092
