Al
 1.0000000000000000
     7.5004362001117739   -0.0000000000000010    0.0000000000000015
    -0.0000000000000015    7.5004362001117739    0.0000000000000038
     0.0000000000000010    0.0000000000000033    7.5004362001117739
 Al 
   8
Cartesian
  4.6877726678411502  4.6877726678406875  4.6877726678410419
  6.5628816661327791  2.8126635660800354  0.9375545349718382
  2.8126635660794670  0.9375545349727433  6.5628816661312559
  0.9375545349718291  6.5628816661322054  2.8126635660805932
  0.9375545175903194  0.9375545175896165  0.9375545175900779
  2.8126635486980667  6.5628816487496318  4.6877726504589994
  6.5628816487498653  4.6877726504587880  2.8126635486977190
  4.6877726504585997  2.8126635486982279  6.5628816487506674
